NAME        
ROWS
 N  Obj     
 E  r0      
 E  r1      
 E  r2      
 E  r3      
 E  r4      
 E  r5      
 E  r6      
 E  r7      
 E  r8      
 E  r9      
 E  r10     
 E  r11     
 E  r12     
 E  r13     
 E  r14     
 E  r15     
 E  r16     
 E  r17     
 E  r18     
 E  r19     
 E  r20     
 E  r21     
 E  r22     
 E  r23     
 E  r24     
 E  r25     
 E  r26     
 E  r27     
 E  r28     
 E  r29     
 E  r30     
 E  r31     
 E  r32     
 E  r33     
 E  r34     
 E  r35     
 E  r36     
 E  r37     
 E  r38     
 E  r39     
 E  r40     
 E  r41     
 E  r42     
 E  r43     
 E  r44     
 E  r45     
 E  r46     
 E  r47     
 E  r48     
 E  r49     
 E  r50     
 E  r51     
 E  r52     
 E  r53     
 E  r54     
 E  r55     
 E  r56     
 E  r57     
 E  r58     
 E  r59     
 E  r60     
 E  r61     
 E  r62     
 E  r63     
 E  r64     
 E  r65     
 E  r66     
 E  r67     
 E  r68     
 E  r69     
 E  r70     
 E  r71     
 E  r72     
 E  r73     
 E  r74     
 E  r75     
 E  r76     
 E  r77     
 E  r78     
 E  r79     
 E  r80     
 E  r81     
 E  r82     
 E  r83     
 E  r84     
 E  r85     
 E  r86     
 E  r87     
 E  r88     
 E  r89     
 E  r90     
 E  r91     
 E  r92     
 E  r93     
 E  r94     
 E  r95     
 E  r96     
 E  r97     
 E  r98     
 E  r99     
 E  r100    
 E  r101    
 E  r102    
 E  r103    
 E  r104    
 E  r105    
 E  r106    
 E  r107    
 E  r108    
 E  r109    
 E  r110    
 E  r111    
 E  r112    
 E  r113    
 E  r114    
 E  r115    
 E  r116    
 E  r117    
 E  r118    
 E  r119    
 E  r120    
 E  r121    
 E  r122    
 E  r123    
 E  r124    
 E  r125    
 E  r126    
 E  r127    
 E  r128    
 E  r129    
 E  r130    
 E  r131    
 E  r132    
 E  r133    
 E  r134    
 E  r135    
 E  r136    
 E  r137    
 E  r138    
 E  r139    
 E  r140    
 E  r141    
 E  r142    
 E  r143    
 E  r144    
 E  r145    
 E  r146    
 E  r147    
 E  r148    
 E  r149    
 E  r150    
 E  r151    
 E  r152    
 E  r153    
 E  r154    
 E  r155    
 E  r156    
 E  r157    
 E  r158    
 E  r159    
 E  r160    
 E  r161    
 E  r162    
 E  r163    
 E  r164    
 E  r165    
 E  r166    
 E  r167    
 E  r168    
 E  r169    
 E  r170    
 E  r171    
 E  r172    
 E  r173    
 E  r174    
 E  r175    
 E  r176    
 E  r177    
 E  r178    
 E  r179    
 E  r180    
 E  r181    
 E  r182    
 E  r183    
 E  r184    
 E  r185    
 E  r186    
 E  r187    
 E  r188    
 E  r189    
 E  r190    
 E  r191    
 E  r192    
 E  r193    
 E  r194    
 E  r195    
 E  r196    
 E  r197    
 E  r198    
 E  r199    
 E  r200    
 E  r201    
 E  r202    
 E  r203    
 E  r204    
 E  r205    
 E  r206    
 E  r207    
 E  r208    
 E  r209    
 E  r210    
 E  r211    
 E  r212    
 E  r213    
 E  r214    
 E  r215    
 E  r216    
 E  r217    
 E  r218    
 E  r219    
 E  r220    
 E  r221    
 E  r222    
 E  r223    
 E  r224    
 E  r225    
 E  r226    
 E  r227    
 E  r228    
 E  r229    
 E  r230    
 E  r231    
 E  r232    
 E  r233    
 E  r234    
 E  r235    
 E  r236    
 E  r237    
 E  r238    
 E  r239    
 E  r240    
 E  r241    
 E  r242    
 E  r243    
 E  r244    
 E  r245    
 E  r246    
 E  r247    
 E  r248    
 E  r249    
 E  r250    
 E  r251    
 E  r252    
 E  r253    
 E  r254    
 E  r255    
 E  r256    
 E  r257    
 E  r258    
 E  r259    
 E  r260    
 E  r261    
 E  r262    
 E  r263    
 E  r264    
 E  r265    
 E  r266    
 E  r267    
 E  r268    
 E  r269    
 E  r270    
 E  r271    
 E  r272    
 E  r273    
 E  r274    
 E  r275    
 E  r276    
 E  r277    
 E  r278    
 E  r279    
 E  r280    
 E  r281    
 E  r282    
 E  r283    
 E  r284    
 E  r285    
 E  r286    
 E  r287    
 E  r288    
 E  r289    
 E  r290    
 E  r291    
 E  r292    
 E  r293    
 E  r294    
 E  r295    
 E  r296    
 E  r297    
 E  r298    
 E  r299    
 E  r300    
 E  r301    
 E  r302    
 E  r303    
 E  r304    
 E  r305    
 E  r306    
 E  r307    
 E  r308    
 E  r309    
 E  r310    
 E  r311    
 E  r312    
 E  r313    
 E  r314    
 E  r315    
 E  r316    
 E  r317    
 E  r318    
 E  r319    
 E  r320    
 E  r321    
 E  r322    
 E  r323    
 E  r324    
 E  r325    
 E  r326    
 E  r327    
 E  r328    
 E  r329    
 E  r330    
 E  r331    
 E  r332    
 E  r333    
 E  r334    
 E  r335    
 E  r336    
 E  r337    
 E  r338    
 E  r339    
 E  r340    
 E  r341    
 E  r342    
 E  r343    
 E  r344    
 E  r345    
 E  r346    
 E  r347    
 E  r348    
 E  r349    
 E  r350    
 E  r351    
 E  r352    
 E  r353    
 E  r354    
 E  r355    
 E  r356    
 E  r357    
 E  r358    
 E  r359    
 E  r360    
 E  r361    
 E  r362    
 E  r363    
 E  r364    
 E  r365    
 E  r366    
 E  r367    
 E  r368    
 E  r369    
 E  r370    
 E  r371    
 E  r372    
 E  r373    
 E  r374    
 E  r375    
 E  r376    
 E  r377    
 E  r378    
 E  r379    
 E  r380    
 E  r381    
 E  r382    
 E  r383    
 E  r384    
 E  r385    
 E  r386    
 E  r387    
 E  r388    
 E  r389    
 E  r390    
 E  r391    
 E  r392    
 E  r393    
 E  r394    
 E  r395    
 E  r396    
 E  r397    
 E  r398    
 E  r399    
 E  r400    
 E  r401    
 E  r402    
 E  r403    
 E  r404    
 E  r405    
 E  r406    
 E  r407    
 E  r408    
 E  r409    
 E  r410    
 E  r411    
 E  r412    
 E  r413    
 E  r414    
 E  r415    
 E  r416    
 E  r417    
 E  r418    
 E  r419    
 E  r420    
 E  r421    
 E  r422    
 E  r423    
 E  r424    
 E  r425    
 E  r426    
 E  r427    
 E  r428    
 E  r429    
 E  r430    
 E  r431    
 E  r432    
 E  r433    
 E  r434    
 E  r435    
 E  r436    
 E  r437    
 E  r438    
 E  r439    
 E  r440    
 E  r441    
 E  r442    
 E  r443    
 E  r444    
 E  r445    
 E  r446    
 E  r447    
 E  r448    
 E  r449    
 E  r450    
 E  r451    
 E  r452    
 E  r453    
 E  r454    
 E  r455    
 E  r456    
 E  r457    
 E  r458    
 E  r459    
 E  r460    
 E  r461    
 E  r462    
 E  r463    
 E  r464    
 E  r465    
 E  r466    
 E  r467    
 E  r468    
 E  r469    
 E  r470    
 E  r471    
 E  r472    
 E  r473    
 E  r474    
 E  r475    
 E  r476    
 E  r477    
 E  r478    
 E  r479    
 E  r480    
 E  r481    
 E  r482    
 E  r483    
 E  r484    
 E  r485    
 E  r486    
 E  r487    
 E  r488    
 E  r489    
 E  r490    
 E  r491    
 E  r492    
 E  r493    
 E  r494    
 E  r495    
 E  r496    
 E  r497    
 E  r498    
 E  r499    
 E  r500    
 E  r501    
 E  r502    
 E  r503    
 E  r504    
 E  r505    
 E  r506    
 E  r507    
 E  r508    
 E  r509    
 E  r510    
 E  r511    
 E  r512    
 E  r513    
 E  r514    
 E  r515    
 E  r516    
 E  r517    
 E  r518    
 E  r519    
 E  r520    
 E  r521    
 E  r522    
 E  r523    
 E  r524    
 E  r525    
 E  r526    
 E  r527    
 E  r528    
 E  r529    
 E  r530    
 E  r531    
 E  r532    
 E  r533    
 E  r534    
 E  r535    
 E  r536    
 E  r537    
 E  r538    
 E  r539    
 E  r540    
 E  r541    
 E  r542    
 E  r543    
 E  r544    
 E  r545    
 E  r546    
 E  r547    
 E  r548    
 E  r549    
 E  r550    
 E  r551    
 E  r552    
 E  r553    
 E  r554    
 E  r555    
 E  r556    
 E  r557    
 E  r558    
 E  r559    
 E  r560    
 E  r561    
 E  r562    
 E  r563    
 E  r564    
 E  r565    
 E  r566    
 E  r567    
 E  r568    
 E  r569    
 E  r570    
 E  r571    
 E  r572    
 E  r573    
 E  r574    
 E  r575    
 E  r576    
 E  r577    
 E  r578    
 E  r579    
 E  r580    
 E  r581    
 E  r582    
 E  r583    
 E  r584    
 E  r585    
 E  r586    
 E  r587    
 E  r588    
 E  r589    
 E  r590    
 E  r591    
 E  r592    
 E  r593    
 E  r594    
 E  r595    
 E  r596    
 E  r597    
 E  r598    
 E  r599    
 E  r600    
 E  r601    
 E  r602    
 E  r603    
 E  r604    
 E  r605    
 E  r606    
 E  r607    
 E  r608    
 E  r609    
 E  r610    
 E  r611    
 E  r612    
 E  r613    
 E  r614    
 E  r615    
 E  r616    
 E  r617    
 E  r618    
 E  r619    
 E  r620    
 E  r621    
 E  r622    
 E  r623    
 E  r624    
 E  r625    
 E  r626    
 E  r627    
 E  r628    
 E  r629    
 E  r630    
 E  r631    
 E  r632    
 E  r633    
 E  r634    
 E  r635    
 E  r636    
 E  r637    
 E  r638    
 E  r639    
 E  r640    
 E  r641    
 E  r642    
 E  r643    
 E  r644    
 E  r645    
 E  r646    
 E  r647    
 E  r648    
 E  r649    
 E  r650    
 E  r651    
 E  r652    
 E  r653    
 E  r654    
 E  r655    
 E  r656    
 E  r657    
 E  r658    
 E  r659    
 E  r660    
 E  r661    
 E  r662    
 E  r663    
 E  r664    
 E  r665    
 E  r666    
 E  r667    
 E  r668    
 E  r669    
 E  r670    
 E  r671    
 E  r672    
 E  r673    
 E  r674    
 E  r675    
 E  r676    
 E  r677    
 E  r678    
 E  r679    
 E  r680    
 E  r681    
 E  r682    
 E  r683    
 E  r684    
 E  r685    
 E  r686    
 E  r687    
 E  r688    
 E  r689    
 E  r690    
 E  r691    
 E  r692    
 E  r693    
 E  r694    
 E  r695    
 E  r696    
 E  r697    
 E  r698    
 E  r699    
 E  r700    
 E  r701    
 E  r702    
 E  r703    
 E  r704    
 E  r705    
 E  r706    
 E  r707    
 E  r708    
 E  r709    
 E  r710    
 E  r711    
 E  r712    
 E  r713    
 E  r714    
 E  r715    
 E  r716    
 E  r717    
 E  r718    
 E  r719    
 E  r720    
 E  r721    
 E  r722    
 E  r723    
 E  r724    
 E  r725    
 E  r726    
 E  r727    
 E  r728    
 E  r729    
 E  r730    
 E  r731    
 E  r732    
 E  r733    
 E  r734    
 E  r735    
 E  r736    
 E  r737    
 E  r738    
 E  r739    
 E  r740    
 E  r741    
 E  r742    
 E  r743    
 E  r744    
 E  r745    
 E  r746    
 E  r747    
 E  r748    
 E  r749    
 E  r750    
 E  r751    
 E  r752    
 E  r753    
 E  r754    
 E  r755    
 E  r756    
 E  r757    
 E  r758    
 E  r759    
 E  r760    
 E  r761    
 E  r762    
 E  r763    
 E  r764    
 E  r765    
 E  r766    
 E  r767    
 E  r768    
 E  r769    
 E  r770    
 E  r771    
 E  r772    
 E  r773    
 E  r774    
 E  r775    
 E  r776    
 E  r777    
 E  r778    
 E  r779    
 E  r780    
 E  r781    
 E  r782    
 E  r783    
 E  r784    
 E  r785    
 E  r786    
 E  r787    
 E  r788    
 E  r789    
 E  r790    
 E  r791    
 E  r792    
 E  r793    
 E  r794    
 E  r795    
 E  r796    
 E  r797    
 E  r798    
 E  r799    
 E  r800    
 E  r801    
 E  r802    
 E  r803    
 E  r804    
 E  r805    
 E  r806    
 E  r807    
 E  r808    
 E  r809    
 E  r810    
 E  r811    
 E  r812    
 E  r813    
 E  r814    
 E  r815    
 E  r816    
 E  r817    
 E  r818    
 E  r819    
 E  r820    
 E  r821    
 E  r822    
 E  r823    
 E  r824    
COLUMNS
    MARK0000  'MARKER'                 'INTORG'
    c0        Obj       1
    c0        r0        1
    c1        Obj       2
    c1        r0        1
    c2        Obj       3
    c2        r0        1
    c3        Obj       4
    c3        r0        1
    c4        Obj       5
    c4        r0        1
    c5        Obj       6
    c5        r0        1
    c6        Obj       7
    c6        r0        1
    c7        Obj       8
    c7        r0        1
    c8        Obj       9
    c8        r0        1
    c9        Obj       10
    c9        r0        1
    c10       Obj       11
    c10       r0        1
    c10       r1        1
    c11       Obj       12
    c11       r0        1
    c11       r1        1
    c12       Obj       13
    c12       r0        1
    c12       r1        1
    c13       Obj       14
    c13       r0        1
    c13       r1        1
    c14       Obj       15
    c14       r0        1
    c14       r1        1
    c15       Obj       16
    c15       r1        1
    c16       Obj       17
    c16       r1        1
    c17       Obj       18
    c17       r1        1
    c18       Obj       19
    c18       r1        1
    c19       Obj       20
    c19       r1        1
    c20       Obj       21
    c20       r1        1
    c20       r2        1
    c21       Obj       22
    c21       r1        1
    c21       r2        1
    c22       Obj       23
    c22       r1        1
    c22       r2        1
    c23       Obj       24
    c23       r1        1
    c23       r2        1
    c24       Obj       25
    c24       r1        1
    c24       r2        1
    c25       Obj       26
    c25       r2        1
    c26       Obj       27
    c26       r2        1
    c27       Obj       28
    c27       r2        1
    c28       Obj       29
    c28       r2        1
    c29       Obj       30
    c29       r2        1
    c30       Obj       31
    c30       r2        1
    c30       r3        1
    c31       Obj       32
    c31       r2        1
    c31       r3        1
    c32       Obj       33
    c32       r2        1
    c32       r3        1
    c33       Obj       34
    c33       r2        1
    c33       r3        1
    c34       Obj       35
    c34       r2        1
    c34       r3        1
    c35       Obj       36
    c35       r3        1
    c36       Obj       37
    c36       r3        1
    c37       Obj       38
    c37       r3        1
    c38       Obj       39
    c38       r3        1
    c39       Obj       40
    c39       r3        1
    c40       Obj       41
    c40       r3        1
    c40       r4        1
    c41       Obj       42
    c41       r3        1
    c41       r4        1
    c42       Obj       43
    c42       r3        1
    c42       r4        1
    c43       Obj       44
    c43       r3        1
    c43       r4        1
    c44       Obj       45
    c44       r3        1
    c44       r4        1
    c45       Obj       46
    c45       r4        1
    c46       Obj       47
    c46       r4        1
    c47       Obj       48
    c47       r4        1
    c48       Obj       49
    c48       r4        1
    c49       Obj       50
    c49       r4        1
    c50       Obj       51
    c50       r4        1
    c50       r5        1
    c51       Obj       52
    c51       r4        1
    c51       r5        1
    c52       Obj       53
    c52       r4        1
    c52       r5        1
    c53       Obj       54
    c53       r4        1
    c53       r5        1
    c54       Obj       55
    c54       r4        1
    c54       r5        1
    c55       Obj       56
    c55       r5        1
    c56       Obj       57
    c56       r5        1
    c57       Obj       58
    c57       r5        1
    c58       Obj       59
    c58       r5        1
    c59       Obj       60
    c59       r5        1
    c60       Obj       61
    c60       r5        1
    c60       r6        1
    c61       Obj       62
    c61       r5        1
    c61       r6        1
    c62       Obj       63
    c62       r5        1
    c62       r6        1
    c63       Obj       64
    c63       r5        1
    c63       r6        1
    c64       Obj       65
    c64       r5        1
    c64       r6        1
    c65       Obj       66
    c65       r6        1
    c66       Obj       67
    c66       r6        1
    c67       Obj       68
    c67       r6        1
    c68       Obj       69
    c68       r6        1
    c69       Obj       70
    c69       r6        1
    c70       Obj       71
    c70       r6        1
    c70       r7        1
    c71       Obj       72
    c71       r6        1
    c71       r7        1
    c72       Obj       73
    c72       r6        1
    c72       r7        1
    c73       Obj       74
    c73       r6        1
    c73       r7        1
    c74       Obj       75
    c74       r6        1
    c74       r7        1
    c75       Obj       76
    c75       r7        1
    c76       Obj       77
    c76       r7        1
    c77       Obj       78
    c77       r7        1
    c78       Obj       79
    c78       r7        1
    c79       Obj       80
    c79       r7        1
    c80       Obj       81
    c80       r7        1
    c80       r8        1
    c81       Obj       82
    c81       r7        1
    c81       r8        1
    c82       Obj       83
    c82       r7        1
    c82       r8        1
    c83       Obj       84
    c83       r7        1
    c83       r8        1
    c84       Obj       85
    c84       r7        1
    c84       r8        1
    c85       Obj       86
    c85       r8        1
    c86       Obj       87
    c86       r8        1
    c87       Obj       88
    c87       r8        1
    c88       Obj       89
    c88       r8        1
    c89       Obj       90
    c89       r8        1
    c90       Obj       91
    c90       r8        1
    c90       r9        1
    c91       Obj       92
    c91       r8        1
    c91       r9        1
    c92       Obj       93
    c92       r8        1
    c92       r9        1
    c93       Obj       94
    c93       r8        1
    c93       r9        1
    c94       Obj       95
    c94       r8        1
    c94       r9        1
    c95       Obj       96
    c95       r9        1
    c96       Obj       97
    c96       r9        1
    c97       Obj       98
    c97       r9        1
    c98       Obj       99
    c98       r9        1
    c99       Obj       100
    c99       r9        1
    c100      Obj       1
    c100      r9        1
    c100      r10       1
    c101      Obj       2
    c101      r9        1
    c101      r10       1
    c102      Obj       3
    c102      r9        1
    c102      r10       1
    c103      Obj       4
    c103      r9        1
    c103      r10       1
    c104      Obj       5
    c104      r9        1
    c104      r10       1
    c105      Obj       6
    c105      r10       1
    c106      Obj       7
    c106      r10       1
    c107      Obj       8
    c107      r10       1
    c108      Obj       9
    c108      r10       1
    c109      Obj       10
    c109      r10       1
    c110      Obj       11
    c110      r10       1
    c110      r11       1
    c111      Obj       12
    c111      r10       1
    c111      r11       1
    c112      Obj       13
    c112      r10       1
    c112      r11       1
    c113      Obj       14
    c113      r10       1
    c113      r11       1
    c114      Obj       15
    c114      r10       1
    c114      r11       1
    c115      Obj       16
    c115      r11       1
    c116      Obj       17
    c116      r11       1
    c117      Obj       18
    c117      r11       1
    c118      Obj       19
    c118      r11       1
    c119      Obj       20
    c119      r11       1
    c120      Obj       21
    c120      r11       1
    c120      r12       1
    c121      Obj       22
    c121      r11       1
    c121      r12       1
    c122      Obj       23
    c122      r11       1
    c122      r12       1
    c123      Obj       24
    c123      r11       1
    c123      r12       1
    c124      Obj       25
    c124      r11       1
    c124      r12       1
    c125      Obj       26
    c125      r12       1
    c126      Obj       27
    c126      r12       1
    c127      Obj       28
    c127      r12       1
    c128      Obj       29
    c128      r12       1
    c129      Obj       30
    c129      r12       1
    c130      Obj       31
    c130      r12       1
    c130      r13       1
    c131      Obj       32
    c131      r12       1
    c131      r13       1
    c132      Obj       33
    c132      r12       1
    c132      r13       1
    c133      Obj       34
    c133      r12       1
    c133      r13       1
    c134      Obj       35
    c134      r12       1
    c134      r13       1
    c135      Obj       36
    c135      r13       1
    c136      Obj       37
    c136      r13       1
    c137      Obj       38
    c137      r13       1
    c138      Obj       39
    c138      r13       1
    c139      Obj       40
    c139      r13       1
    c140      Obj       41
    c140      r13       1
    c140      r14       1
    c141      Obj       42
    c141      r13       1
    c141      r14       1
    c142      Obj       43
    c142      r13       1
    c142      r14       1
    c143      Obj       44
    c143      r13       1
    c143      r14       1
    c144      Obj       45
    c144      r13       1
    c144      r14       1
    c145      Obj       46
    c145      r14       1
    c146      Obj       47
    c146      r14       1
    c147      Obj       48
    c147      r14       1
    c148      Obj       49
    c148      r14       1
    c149      Obj       50
    c149      r14       1
    c150      Obj       51
    c150      r14       1
    c150      r15       1
    c151      Obj       52
    c151      r14       1
    c151      r15       1
    c152      Obj       53
    c152      r14       1
    c152      r15       1
    c153      Obj       54
    c153      r14       1
    c153      r15       1
    c154      Obj       55
    c154      r14       1
    c154      r15       1
    c155      Obj       56
    c155      r15       1
    c156      Obj       57
    c156      r15       1
    c157      Obj       58
    c157      r15       1
    c158      Obj       59
    c158      r15       1
    c159      Obj       60
    c159      r15       1
    c160      Obj       61
    c160      r15       1
    c160      r16       1
    c161      Obj       62
    c161      r15       1
    c161      r16       1
    c162      Obj       63
    c162      r15       1
    c162      r16       1
    c163      Obj       64
    c163      r15       1
    c163      r16       1
    c164      Obj       65
    c164      r15       1
    c164      r16       1
    c165      Obj       66
    c165      r16       1
    c166      Obj       67
    c166      r16       1
    c167      Obj       68
    c167      r16       1
    c168      Obj       69
    c168      r16       1
    c169      Obj       70
    c169      r16       1
    c170      Obj       71
    c170      r16       1
    c170      r17       1
    c171      Obj       72
    c171      r16       1
    c171      r17       1
    c172      Obj       73
    c172      r16       1
    c172      r17       1
    c173      Obj       74
    c173      r16       1
    c173      r17       1
    c174      Obj       75
    c174      r16       1
    c174      r17       1
    c175      Obj       76
    c175      r17       1
    c176      Obj       77
    c176      r17       1
    c177      Obj       78
    c177      r17       1
    c178      Obj       79
    c178      r17       1
    c179      Obj       80
    c179      r17       1
    c180      Obj       81
    c180      r17       1
    c180      r18       1
    c181      Obj       82
    c181      r17       1
    c181      r18       1
    c182      Obj       83
    c182      r17       1
    c182      r18       1
    c183      Obj       84
    c183      r17       1
    c183      r18       1
    c184      Obj       85
    c184      r17       1
    c184      r18       1
    c185      Obj       86
    c185      r18       1
    c186      Obj       87
    c186      r18       1
    c187      Obj       88
    c187      r18       1
    c188      Obj       89
    c188      r18       1
    c189      Obj       90
    c189      r18       1
    c190      Obj       91
    c190      r18       1
    c190      r19       1
    c191      Obj       92
    c191      r18       1
    c191      r19       1
    c192      Obj       93
    c192      r18       1
    c192      r19       1
    c193      Obj       94
    c193      r18       1
    c193      r19       1
    c194      Obj       95
    c194      r18       1
    c194      r19       1
    c195      Obj       96
    c195      r19       1
    c196      Obj       97
    c196      r19       1
    c197      Obj       98
    c197      r19       1
    c198      Obj       99
    c198      r19       1
    c199      Obj       100
    c199      r19       1
    c200      Obj       1
    c200      r19       1
    c200      r20       1
    c201      Obj       2
    c201      r19       1
    c201      r20       1
    c202      Obj       3
    c202      r19       1
    c202      r20       1
    c203      Obj       4
    c203      r19       1
    c203      r20       1
    c204      Obj       5
    c204      r19       1
    c204      r20       1
    c205      Obj       6
    c205      r20       1
    c206      Obj       7
    c206      r20       1
    c207      Obj       8
    c207      r20       1
    c208      Obj       9
    c208      r20       1
    c209      Obj       10
    c209      r20       1
    c210      Obj       11
    c210      r20       1
    c210      r21       1
    c211      Obj       12
    c211      r20       1
    c211      r21       1
    c212      Obj       13
    c212      r20       1
    c212      r21       1
    c213      Obj       14
    c213      r20       1
    c213      r21       1
    c214      Obj       15
    c214      r20       1
    c214      r21       1
    c215      Obj       16
    c215      r21       1
    c216      Obj       17
    c216      r21       1
    c217      Obj       18
    c217      r21       1
    c218      Obj       19
    c218      r21       1
    c219      Obj       20
    c219      r21       1
    c220      Obj       21
    c220      r21       1
    c220      r22       1
    c221      Obj       22
    c221      r21       1
    c221      r22       1
    c222      Obj       23
    c222      r21       1
    c222      r22       1
    c223      Obj       24
    c223      r21       1
    c223      r22       1
    c224      Obj       25
    c224      r21       1
    c224      r22       1
    c225      Obj       26
    c225      r22       1
    c226      Obj       27
    c226      r22       1
    c227      Obj       28
    c227      r22       1
    c228      Obj       29
    c228      r22       1
    c229      Obj       30
    c229      r22       1
    c230      Obj       31
    c230      r22       1
    c230      r23       1
    c231      Obj       32
    c231      r22       1
    c231      r23       1
    c232      Obj       33
    c232      r22       1
    c232      r23       1
    c233      Obj       34
    c233      r22       1
    c233      r23       1
    c234      Obj       35
    c234      r22       1
    c234      r23       1
    c235      Obj       36
    c235      r23       1
    c236      Obj       37
    c236      r23       1
    c237      Obj       38
    c237      r23       1
    c238      Obj       39
    c238      r23       1
    c239      Obj       40
    c239      r23       1
    c240      Obj       41
    c240      r23       1
    c240      r24       1
    c241      Obj       42
    c241      r23       1
    c241      r24       1
    c242      Obj       43
    c242      r23       1
    c242      r24       1
    c243      Obj       44
    c243      r23       1
    c243      r24       1
    c244      Obj       45
    c244      r23       1
    c244      r24       1
    c245      Obj       46
    c245      r24       1
    c246      Obj       47
    c246      r24       1
    c247      Obj       48
    c247      r24       1
    c248      Obj       49
    c248      r24       1
    c249      Obj       50
    c249      r24       1
    c250      Obj       51
    c250      r24       1
    c250      r25       1
    c251      Obj       52
    c251      r24       1
    c251      r25       1
    c252      Obj       53
    c252      r24       1
    c252      r25       1
    c253      Obj       54
    c253      r24       1
    c253      r25       1
    c254      Obj       55
    c254      r24       1
    c254      r25       1
    c255      Obj       56
    c255      r25       1
    c256      Obj       57
    c256      r25       1
    c257      Obj       58
    c257      r25       1
    c258      Obj       59
    c258      r25       1
    c259      Obj       60
    c259      r25       1
    c260      Obj       61
    c260      r25       1
    c260      r26       1
    c261      Obj       62
    c261      r25       1
    c261      r26       1
    c262      Obj       63
    c262      r25       1
    c262      r26       1
    c263      Obj       64
    c263      r25       1
    c263      r26       1
    c264      Obj       65
    c264      r25       1
    c264      r26       1
    c265      Obj       66
    c265      r26       1
    c266      Obj       67
    c266      r26       1
    c267      Obj       68
    c267      r26       1
    c268      Obj       69
    c268      r26       1
    c269      Obj       70
    c269      r26       1
    c270      Obj       71
    c270      r26       1
    c270      r27       1
    c271      Obj       72
    c271      r26       1
    c271      r27       1
    c272      Obj       73
    c272      r26       1
    c272      r27       1
    c273      Obj       74
    c273      r26       1
    c273      r27       1
    c274      Obj       75
    c274      r26       1
    c274      r27       1
    c275      Obj       76
    c275      r27       1
    c276      Obj       77
    c276      r27       1
    c277      Obj       78
    c277      r27       1
    c278      Obj       79
    c278      r27       1
    c279      Obj       80
    c279      r27       1
    c280      Obj       81
    c280      r27       1
    c280      r28       1
    c281      Obj       82
    c281      r27       1
    c281      r28       1
    c282      Obj       83
    c282      r27       1
    c282      r28       1
    c283      Obj       84
    c283      r27       1
    c283      r28       1
    c284      Obj       85
    c284      r27       1
    c284      r28       1
    c285      Obj       86
    c285      r28       1
    c286      Obj       87
    c286      r28       1
    c287      Obj       88
    c287      r28       1
    c288      Obj       89
    c288      r28       1
    c289      Obj       90
    c289      r28       1
    c290      Obj       91
    c290      r28       1
    c290      r29       1
    c291      Obj       92
    c291      r28       1
    c291      r29       1
    c292      Obj       93
    c292      r28       1
    c292      r29       1
    c293      Obj       94
    c293      r28       1
    c293      r29       1
    c294      Obj       95
    c294      r28       1
    c294      r29       1
    c295      Obj       96
    c295      r29       1
    c296      Obj       97
    c296      r29       1
    c297      Obj       98
    c297      r29       1
    c298      Obj       99
    c298      r29       1
    c299      Obj       100
    c299      r29       1
    c300      Obj       1
    c300      r29       1
    c300      r30       1
    c301      Obj       2
    c301      r29       1
    c301      r30       1
    c302      Obj       3
    c302      r29       1
    c302      r30       1
    c303      Obj       4
    c303      r29       1
    c303      r30       1
    c304      Obj       5
    c304      r29       1
    c304      r30       1
    c305      Obj       6
    c305      r30       1
    c306      Obj       7
    c306      r30       1
    c307      Obj       8
    c307      r30       1
    c308      Obj       9
    c308      r30       1
    c309      Obj       10
    c309      r30       1
    c310      Obj       11
    c310      r30       1
    c310      r31       1
    c311      Obj       12
    c311      r30       1
    c311      r31       1
    c312      Obj       13
    c312      r30       1
    c312      r31       1
    c313      Obj       14
    c313      r30       1
    c313      r31       1
    c314      Obj       15
    c314      r30       1
    c314      r31       1
    c315      Obj       16
    c315      r31       1
    c316      Obj       17
    c316      r31       1
    c317      Obj       18
    c317      r31       1
    c318      Obj       19
    c318      r31       1
    c319      Obj       20
    c319      r31       1
    c320      Obj       21
    c320      r31       1
    c320      r32       1
    c321      Obj       22
    c321      r31       1
    c321      r32       1
    c322      Obj       23
    c322      r31       1
    c322      r32       1
    c323      Obj       24
    c323      r31       1
    c323      r32       1
    c324      Obj       25
    c324      r31       1
    c324      r32       1
    c325      Obj       26
    c325      r32       1
    c326      Obj       27
    c326      r32       1
    c327      Obj       28
    c327      r32       1
    c328      Obj       29
    c328      r32       1
    c329      Obj       30
    c329      r32       1
    c330      Obj       31
    c330      r32       1
    c330      r33       1
    c331      Obj       32
    c331      r32       1
    c331      r33       1
    c332      Obj       33
    c332      r32       1
    c332      r33       1
    c333      Obj       34
    c333      r32       1
    c333      r33       1
    c334      Obj       35
    c334      r32       1
    c334      r33       1
    c335      Obj       36
    c335      r33       1
    c336      Obj       37
    c336      r33       1
    c337      Obj       38
    c337      r33       1
    c338      Obj       39
    c338      r33       1
    c339      Obj       40
    c339      r33       1
    c340      Obj       41
    c340      r33       1
    c340      r34       1
    c341      Obj       42
    c341      r33       1
    c341      r34       1
    c342      Obj       43
    c342      r33       1
    c342      r34       1
    c343      Obj       44
    c343      r33       1
    c343      r34       1
    c344      Obj       45
    c344      r33       1
    c344      r34       1
    c345      Obj       46
    c345      r34       1
    c346      Obj       47
    c346      r34       1
    c347      Obj       48
    c347      r34       1
    c348      Obj       49
    c348      r34       1
    c349      Obj       50
    c349      r34       1
    c350      Obj       51
    c350      r34       1
    c350      r35       1
    c351      Obj       52
    c351      r34       1
    c351      r35       1
    c352      Obj       53
    c352      r34       1
    c352      r35       1
    c353      Obj       54
    c353      r34       1
    c353      r35       1
    c354      Obj       55
    c354      r34       1
    c354      r35       1
    c355      Obj       56
    c355      r35       1
    c356      Obj       57
    c356      r35       1
    c357      Obj       58
    c357      r35       1
    c358      Obj       59
    c358      r35       1
    c359      Obj       60
    c359      r35       1
    c360      Obj       61
    c360      r35       1
    c360      r36       1
    c361      Obj       62
    c361      r35       1
    c361      r36       1
    c362      Obj       63
    c362      r35       1
    c362      r36       1
    c363      Obj       64
    c363      r35       1
    c363      r36       1
    c364      Obj       65
    c364      r35       1
    c364      r36       1
    c365      Obj       66
    c365      r36       1
    c366      Obj       67
    c366      r36       1
    c367      Obj       68
    c367      r36       1
    c368      Obj       69
    c368      r36       1
    c369      Obj       70
    c369      r36       1
    c370      Obj       71
    c370      r36       1
    c370      r37       1
    c371      Obj       72
    c371      r36       1
    c371      r37       1
    c372      Obj       73
    c372      r36       1
    c372      r37       1
    c373      Obj       74
    c373      r36       1
    c373      r37       1
    c374      Obj       75
    c374      r36       1
    c374      r37       1
    c375      Obj       76
    c375      r37       1
    c376      Obj       77
    c376      r37       1
    c377      Obj       78
    c377      r37       1
    c378      Obj       79
    c378      r37       1
    c379      Obj       80
    c379      r37       1
    c380      Obj       81
    c380      r37       1
    c380      r38       1
    c381      Obj       82
    c381      r37       1
    c381      r38       1
    c382      Obj       83
    c382      r37       1
    c382      r38       1
    c383      Obj       84
    c383      r37       1
    c383      r38       1
    c384      Obj       85
    c384      r37       1
    c384      r38       1
    c385      Obj       86
    c385      r38       1
    c386      Obj       87
    c386      r38       1
    c387      Obj       88
    c387      r38       1
    c388      Obj       89
    c388      r38       1
    c389      Obj       90
    c389      r38       1
    c390      Obj       91
    c390      r38       1
    c390      r39       1
    c391      Obj       92
    c391      r38       1
    c391      r39       1
    c392      Obj       93
    c392      r38       1
    c392      r39       1
    c393      Obj       94
    c393      r38       1
    c393      r39       1
    c394      Obj       95
    c394      r38       1
    c394      r39       1
    c395      Obj       96
    c395      r39       1
    c396      Obj       97
    c396      r39       1
    c397      Obj       98
    c397      r39       1
    c398      Obj       99
    c398      r39       1
    c399      Obj       100
    c399      r39       1
    c400      Obj       1
    c400      r39       1
    c400      r40       1
    c401      Obj       2
    c401      r39       1
    c401      r40       1
    c402      Obj       3
    c402      r39       1
    c402      r40       1
    c403      Obj       4
    c403      r39       1
    c403      r40       1
    c404      Obj       5
    c404      r39       1
    c404      r40       1
    c405      Obj       6
    c405      r40       1
    c406      Obj       7
    c406      r40       1
    c407      Obj       8
    c407      r40       1
    c408      Obj       9
    c408      r40       1
    c409      Obj       10
    c409      r40       1
    c410      Obj       11
    c410      r40       1
    c410      r41       1
    c411      Obj       12
    c411      r40       1
    c411      r41       1
    c412      Obj       13
    c412      r40       1
    c412      r41       1
    c413      Obj       14
    c413      r40       1
    c413      r41       1
    c414      Obj       15
    c414      r40       1
    c414      r41       1
    c415      Obj       16
    c415      r41       1
    c416      Obj       17
    c416      r41       1
    c417      Obj       18
    c417      r41       1
    c418      Obj       19
    c418      r41       1
    c419      Obj       20
    c419      r41       1
    c420      Obj       21
    c420      r41       1
    c420      r42       1
    c421      Obj       22
    c421      r41       1
    c421      r42       1
    c422      Obj       23
    c422      r41       1
    c422      r42       1
    c423      Obj       24
    c423      r41       1
    c423      r42       1
    c424      Obj       25
    c424      r41       1
    c424      r42       1
    c425      Obj       26
    c425      r42       1
    c426      Obj       27
    c426      r42       1
    c427      Obj       28
    c427      r42       1
    c428      Obj       29
    c428      r42       1
    c429      Obj       30
    c429      r42       1
    c430      Obj       31
    c430      r42       1
    c430      r43       1
    c431      Obj       32
    c431      r42       1
    c431      r43       1
    c432      Obj       33
    c432      r42       1
    c432      r43       1
    c433      Obj       34
    c433      r42       1
    c433      r43       1
    c434      Obj       35
    c434      r42       1
    c434      r43       1
    c435      Obj       36
    c435      r43       1
    c436      Obj       37
    c436      r43       1
    c437      Obj       38
    c437      r43       1
    c438      Obj       39
    c438      r43       1
    c439      Obj       40
    c439      r43       1
    c440      Obj       41
    c440      r43       1
    c440      r44       1
    c441      Obj       42
    c441      r43       1
    c441      r44       1
    c442      Obj       43
    c442      r43       1
    c442      r44       1
    c443      Obj       44
    c443      r43       1
    c443      r44       1
    c444      Obj       45
    c444      r43       1
    c444      r44       1
    c445      Obj       46
    c445      r44       1
    c446      Obj       47
    c446      r44       1
    c447      Obj       48
    c447      r44       1
    c448      Obj       49
    c448      r44       1
    c449      Obj       50
    c449      r44       1
    c450      Obj       51
    c450      r44       1
    c450      r45       1
    c451      Obj       52
    c451      r44       1
    c451      r45       1
    c452      Obj       53
    c452      r44       1
    c452      r45       1
    c453      Obj       54
    c453      r44       1
    c453      r45       1
    c454      Obj       55
    c454      r44       1
    c454      r45       1
    c455      Obj       56
    c455      r45       1
    c456      Obj       57
    c456      r45       1
    c457      Obj       58
    c457      r45       1
    c458      Obj       59
    c458      r45       1
    c459      Obj       60
    c459      r45       1
    c460      Obj       61
    c460      r45       1
    c460      r46       1
    c461      Obj       62
    c461      r45       1
    c461      r46       1
    c462      Obj       63
    c462      r45       1
    c462      r46       1
    c463      Obj       64
    c463      r45       1
    c463      r46       1
    c464      Obj       65
    c464      r45       1
    c464      r46       1
    c465      Obj       66
    c465      r46       1
    c466      Obj       67
    c466      r46       1
    c467      Obj       68
    c467      r46       1
    c468      Obj       69
    c468      r46       1
    c469      Obj       70
    c469      r46       1
    c470      Obj       71
    c470      r46       1
    c470      r47       1
    c471      Obj       72
    c471      r46       1
    c471      r47       1
    c472      Obj       73
    c472      r46       1
    c472      r47       1
    c473      Obj       74
    c473      r46       1
    c473      r47       1
    c474      Obj       75
    c474      r46       1
    c474      r47       1
    c475      Obj       76
    c475      r47       1
    c476      Obj       77
    c476      r47       1
    c477      Obj       78
    c477      r47       1
    c478      Obj       79
    c478      r47       1
    c479      Obj       80
    c479      r47       1
    c480      Obj       81
    c480      r47       1
    c480      r48       1
    c481      Obj       82
    c481      r47       1
    c481      r48       1
    c482      Obj       83
    c482      r47       1
    c482      r48       1
    c483      Obj       84
    c483      r47       1
    c483      r48       1
    c484      Obj       85
    c484      r47       1
    c484      r48       1
    c485      Obj       86
    c485      r48       1
    c486      Obj       87
    c486      r48       1
    c487      Obj       88
    c487      r48       1
    c488      Obj       89
    c488      r48       1
    c489      Obj       90
    c489      r48       1
    c490      Obj       91
    c490      r48       1
    c490      r49       1
    c491      Obj       92
    c491      r48       1
    c491      r49       1
    c492      Obj       93
    c492      r48       1
    c492      r49       1
    c493      Obj       94
    c493      r48       1
    c493      r49       1
    c494      Obj       95
    c494      r48       1
    c494      r49       1
    c495      Obj       96
    c495      r49       1
    c496      Obj       97
    c496      r49       1
    c497      Obj       98
    c497      r49       1
    c498      Obj       99
    c498      r49       1
    c499      Obj       100
    c499      r49       1
    c500      Obj       1
    c500      r49       1
    c500      r50       1
    c501      Obj       2
    c501      r49       1
    c501      r50       1
    c502      Obj       3
    c502      r49       1
    c502      r50       1
    c503      Obj       4
    c503      r49       1
    c503      r50       1
    c504      Obj       5
    c504      r49       1
    c504      r50       1
    c505      Obj       6
    c505      r50       1
    c506      Obj       7
    c506      r50       1
    c507      Obj       8
    c507      r50       1
    c508      Obj       9
    c508      r50       1
    c509      Obj       10
    c509      r50       1
    c510      Obj       11
    c510      r50       1
    c510      r51       1
    c511      Obj       12
    c511      r50       1
    c511      r51       1
    c512      Obj       13
    c512      r50       1
    c512      r51       1
    c513      Obj       14
    c513      r50       1
    c513      r51       1
    c514      Obj       15
    c514      r50       1
    c514      r51       1
    c515      Obj       16
    c515      r51       1
    c516      Obj       17
    c516      r51       1
    c517      Obj       18
    c517      r51       1
    c518      Obj       19
    c518      r51       1
    c519      Obj       20
    c519      r51       1
    c520      Obj       21
    c520      r51       1
    c520      r52       1
    c521      Obj       22
    c521      r51       1
    c521      r52       1
    c522      Obj       23
    c522      r51       1
    c522      r52       1
    c523      Obj       24
    c523      r51       1
    c523      r52       1
    c524      Obj       25
    c524      r51       1
    c524      r52       1
    c525      Obj       26
    c525      r52       1
    c526      Obj       27
    c526      r52       1
    c527      Obj       28
    c527      r52       1
    c528      Obj       29
    c528      r52       1
    c529      Obj       30
    c529      r52       1
    c530      Obj       31
    c530      r52       1
    c530      r53       1
    c531      Obj       32
    c531      r52       1
    c531      r53       1
    c532      Obj       33
    c532      r52       1
    c532      r53       1
    c533      Obj       34
    c533      r52       1
    c533      r53       1
    c534      Obj       35
    c534      r52       1
    c534      r53       1
    c535      Obj       36
    c535      r53       1
    c536      Obj       37
    c536      r53       1
    c537      Obj       38
    c537      r53       1
    c538      Obj       39
    c538      r53       1
    c539      Obj       40
    c539      r53       1
    c540      Obj       41
    c540      r53       1
    c540      r54       1
    c541      Obj       42
    c541      r53       1
    c541      r54       1
    c542      Obj       43
    c542      r53       1
    c542      r54       1
    c543      Obj       44
    c543      r53       1
    c543      r54       1
    c544      Obj       45
    c544      r53       1
    c544      r54       1
    c545      Obj       46
    c545      r54       1
    c546      Obj       47
    c546      r54       1
    c547      Obj       48
    c547      r54       1
    c548      Obj       49
    c548      r54       1
    c549      Obj       50
    c549      r54       1
    c550      Obj       51
    c550      r54       1
    c550      r55       1
    c551      Obj       52
    c551      r54       1
    c551      r55       1
    c552      Obj       53
    c552      r54       1
    c552      r55       1
    c553      Obj       54
    c553      r54       1
    c553      r55       1
    c554      Obj       55
    c554      r54       1
    c554      r55       1
    c555      Obj       56
    c555      r55       1
    c556      Obj       57
    c556      r55       1
    c557      Obj       58
    c557      r55       1
    c558      Obj       59
    c558      r55       1
    c559      Obj       60
    c559      r55       1
    c560      Obj       61
    c560      r55       1
    c560      r56       1
    c561      Obj       62
    c561      r55       1
    c561      r56       1
    c562      Obj       63
    c562      r55       1
    c562      r56       1
    c563      Obj       64
    c563      r55       1
    c563      r56       1
    c564      Obj       65
    c564      r55       1
    c564      r56       1
    c565      Obj       66
    c565      r56       1
    c566      Obj       67
    c566      r56       1
    c567      Obj       68
    c567      r56       1
    c568      Obj       69
    c568      r56       1
    c569      Obj       70
    c569      r56       1
    c570      Obj       71
    c570      r56       1
    c570      r57       1
    c571      Obj       72
    c571      r56       1
    c571      r57       1
    c572      Obj       73
    c572      r56       1
    c572      r57       1
    c573      Obj       74
    c573      r56       1
    c573      r57       1
    c574      Obj       75
    c574      r56       1
    c574      r57       1
    c575      Obj       76
    c575      r57       1
    c576      Obj       77
    c576      r57       1
    c577      Obj       78
    c577      r57       1
    c578      Obj       79
    c578      r57       1
    c579      Obj       80
    c579      r57       1
    c580      Obj       81
    c580      r57       1
    c580      r58       1
    c581      Obj       82
    c581      r57       1
    c581      r58       1
    c582      Obj       83
    c582      r57       1
    c582      r58       1
    c583      Obj       84
    c583      r57       1
    c583      r58       1
    c584      Obj       85
    c584      r57       1
    c584      r58       1
    c585      Obj       86
    c585      r58       1
    c586      Obj       87
    c586      r58       1
    c587      Obj       88
    c587      r58       1
    c588      Obj       89
    c588      r58       1
    c589      Obj       90
    c589      r58       1
    c590      Obj       91
    c590      r58       1
    c590      r59       1
    c591      Obj       92
    c591      r58       1
    c591      r59       1
    c592      Obj       93
    c592      r58       1
    c592      r59       1
    c593      Obj       94
    c593      r58       1
    c593      r59       1
    c594      Obj       95
    c594      r58       1
    c594      r59       1
    c595      Obj       96
    c595      r59       1
    c596      Obj       97
    c596      r59       1
    c597      Obj       98
    c597      r59       1
    c598      Obj       99
    c598      r59       1
    c599      Obj       100
    c599      r59       1
    c600      Obj       1
    c600      r59       1
    c600      r60       1
    c601      Obj       2
    c601      r59       1
    c601      r60       1
    c602      Obj       3
    c602      r59       1
    c602      r60       1
    c603      Obj       4
    c603      r59       1
    c603      r60       1
    c604      Obj       5
    c604      r59       1
    c604      r60       1
    c605      Obj       6
    c605      r60       1
    c606      Obj       7
    c606      r60       1
    c607      Obj       8
    c607      r60       1
    c608      Obj       9
    c608      r60       1
    c609      Obj       10
    c609      r60       1
    c610      Obj       11
    c610      r60       1
    c610      r61       1
    c611      Obj       12
    c611      r60       1
    c611      r61       1
    c612      Obj       13
    c612      r60       1
    c612      r61       1
    c613      Obj       14
    c613      r60       1
    c613      r61       1
    c614      Obj       15
    c614      r60       1
    c614      r61       1
    c615      Obj       16
    c615      r61       1
    c616      Obj       17
    c616      r61       1
    c617      Obj       18
    c617      r61       1
    c618      Obj       19
    c618      r61       1
    c619      Obj       20
    c619      r61       1
    c620      Obj       21
    c620      r61       1
    c620      r62       1
    c621      Obj       22
    c621      r61       1
    c621      r62       1
    c622      Obj       23
    c622      r61       1
    c622      r62       1
    c623      Obj       24
    c623      r61       1
    c623      r62       1
    c624      Obj       25
    c624      r61       1
    c624      r62       1
    c625      Obj       26
    c625      r62       1
    c626      Obj       27
    c626      r62       1
    c627      Obj       28
    c627      r62       1
    c628      Obj       29
    c628      r62       1
    c629      Obj       30
    c629      r62       1
    c630      Obj       31
    c630      r62       1
    c630      r63       1
    c631      Obj       32
    c631      r62       1
    c631      r63       1
    c632      Obj       33
    c632      r62       1
    c632      r63       1
    c633      Obj       34
    c633      r62       1
    c633      r63       1
    c634      Obj       35
    c634      r62       1
    c634      r63       1
    c635      Obj       36
    c635      r63       1
    c636      Obj       37
    c636      r63       1
    c637      Obj       38
    c637      r63       1
    c638      Obj       39
    c638      r63       1
    c639      Obj       40
    c639      r63       1
    c640      Obj       41
    c640      r63       1
    c640      r64       1
    c641      Obj       42
    c641      r63       1
    c641      r64       1
    c642      Obj       43
    c642      r63       1
    c642      r64       1
    c643      Obj       44
    c643      r63       1
    c643      r64       1
    c644      Obj       45
    c644      r63       1
    c644      r64       1
    c645      Obj       46
    c645      r64       1
    c646      Obj       47
    c646      r64       1
    c647      Obj       48
    c647      r64       1
    c648      Obj       49
    c648      r64       1
    c649      Obj       50
    c649      r64       1
    c650      Obj       51
    c650      r64       1
    c650      r65       1
    c651      Obj       52
    c651      r64       1
    c651      r65       1
    c652      Obj       53
    c652      r64       1
    c652      r65       1
    c653      Obj       54
    c653      r64       1
    c653      r65       1
    c654      Obj       55
    c654      r64       1
    c654      r65       1
    c655      Obj       56
    c655      r65       1
    c656      Obj       57
    c656      r65       1
    c657      Obj       58
    c657      r65       1
    c658      Obj       59
    c658      r65       1
    c659      Obj       60
    c659      r65       1
    c660      Obj       61
    c660      r65       1
    c660      r66       1
    c661      Obj       62
    c661      r65       1
    c661      r66       1
    c662      Obj       63
    c662      r65       1
    c662      r66       1
    c663      Obj       64
    c663      r65       1
    c663      r66       1
    c664      Obj       65
    c664      r65       1
    c664      r66       1
    c665      Obj       66
    c665      r66       1
    c666      Obj       67
    c666      r66       1
    c667      Obj       68
    c667      r66       1
    c668      Obj       69
    c668      r66       1
    c669      Obj       70
    c669      r66       1
    c670      Obj       71
    c670      r66       1
    c670      r67       1
    c671      Obj       72
    c671      r66       1
    c671      r67       1
    c672      Obj       73
    c672      r66       1
    c672      r67       1
    c673      Obj       74
    c673      r66       1
    c673      r67       1
    c674      Obj       75
    c674      r66       1
    c674      r67       1
    c675      Obj       76
    c675      r67       1
    c676      Obj       77
    c676      r67       1
    c677      Obj       78
    c677      r67       1
    c678      Obj       79
    c678      r67       1
    c679      Obj       80
    c679      r67       1
    c680      Obj       81
    c680      r67       1
    c680      r68       1
    c681      Obj       82
    c681      r67       1
    c681      r68       1
    c682      Obj       83
    c682      r67       1
    c682      r68       1
    c683      Obj       84
    c683      r67       1
    c683      r68       1
    c684      Obj       85
    c684      r67       1
    c684      r68       1
    c685      Obj       86
    c685      r68       1
    c686      Obj       87
    c686      r68       1
    c687      Obj       88
    c687      r68       1
    c688      Obj       89
    c688      r68       1
    c689      Obj       90
    c689      r68       1
    c690      Obj       91
    c690      r68       1
    c690      r69       1
    c691      Obj       92
    c691      r68       1
    c691      r69       1
    c692      Obj       93
    c692      r68       1
    c692      r69       1
    c693      Obj       94
    c693      r68       1
    c693      r69       1
    c694      Obj       95
    c694      r68       1
    c694      r69       1
    c695      Obj       96
    c695      r69       1
    c696      Obj       97
    c696      r69       1
    c697      Obj       98
    c697      r69       1
    c698      Obj       99
    c698      r69       1
    c699      Obj       100
    c699      r69       1
    c700      Obj       1
    c700      r69       1
    c700      r70       1
    c701      Obj       2
    c701      r69       1
    c701      r70       1
    c702      Obj       3
    c702      r69       1
    c702      r70       1
    c703      Obj       4
    c703      r69       1
    c703      r70       1
    c704      Obj       5
    c704      r69       1
    c704      r70       1
    c705      Obj       6
    c705      r70       1
    c706      Obj       7
    c706      r70       1
    c707      Obj       8
    c707      r70       1
    c708      Obj       9
    c708      r70       1
    c709      Obj       10
    c709      r70       1
    c710      Obj       11
    c710      r70       1
    c710      r71       1
    c711      Obj       12
    c711      r70       1
    c711      r71       1
    c712      Obj       13
    c712      r70       1
    c712      r71       1
    c713      Obj       14
    c713      r70       1
    c713      r71       1
    c714      Obj       15
    c714      r70       1
    c714      r71       1
    c715      Obj       16
    c715      r71       1
    c716      Obj       17
    c716      r71       1
    c717      Obj       18
    c717      r71       1
    c718      Obj       19
    c718      r71       1
    c719      Obj       20
    c719      r71       1
    c720      Obj       21
    c720      r71       1
    c720      r72       1
    c721      Obj       22
    c721      r71       1
    c721      r72       1
    c722      Obj       23
    c722      r71       1
    c722      r72       1
    c723      Obj       24
    c723      r71       1
    c723      r72       1
    c724      Obj       25
    c724      r71       1
    c724      r72       1
    c725      Obj       26
    c725      r72       1
    c726      Obj       27
    c726      r72       1
    c727      Obj       28
    c727      r72       1
    c728      Obj       29
    c728      r72       1
    c729      Obj       30
    c729      r72       1
    c730      Obj       31
    c730      r72       1
    c730      r73       1
    c731      Obj       32
    c731      r72       1
    c731      r73       1
    c732      Obj       33
    c732      r72       1
    c732      r73       1
    c733      Obj       34
    c733      r72       1
    c733      r73       1
    c734      Obj       35
    c734      r72       1
    c734      r73       1
    c735      Obj       36
    c735      r73       1
    c736      Obj       37
    c736      r73       1
    c737      Obj       38
    c737      r73       1
    c738      Obj       39
    c738      r73       1
    c739      Obj       40
    c739      r73       1
    c740      Obj       41
    c740      r73       1
    c740      r74       1
    c741      Obj       42
    c741      r73       1
    c741      r74       1
    c742      Obj       43
    c742      r73       1
    c742      r74       1
    c743      Obj       44
    c743      r73       1
    c743      r74       1
    c744      Obj       45
    c744      r73       1
    c744      r74       1
    c745      Obj       46
    c745      r74       1
    c746      Obj       47
    c746      r74       1
    c747      Obj       48
    c747      r74       1
    c748      Obj       49
    c748      r74       1
    c749      Obj       50
    c749      r74       1
    c750      Obj       51
    c750      r74       1
    c750      r75       1
    c751      Obj       52
    c751      r74       1
    c751      r75       1
    c752      Obj       53
    c752      r74       1
    c752      r75       1
    c753      Obj       54
    c753      r74       1
    c753      r75       1
    c754      Obj       55
    c754      r74       1
    c754      r75       1
    c755      Obj       56
    c755      r75       1
    c756      Obj       57
    c756      r75       1
    c757      Obj       58
    c757      r75       1
    c758      Obj       59
    c758      r75       1
    c759      Obj       60
    c759      r75       1
    c760      Obj       61
    c760      r75       1
    c760      r76       1
    c761      Obj       62
    c761      r75       1
    c761      r76       1
    c762      Obj       63
    c762      r75       1
    c762      r76       1
    c763      Obj       64
    c763      r75       1
    c763      r76       1
    c764      Obj       65
    c764      r75       1
    c764      r76       1
    c765      Obj       66
    c765      r76       1
    c766      Obj       67
    c766      r76       1
    c767      Obj       68
    c767      r76       1
    c768      Obj       69
    c768      r76       1
    c769      Obj       70
    c769      r76       1
    c770      Obj       71
    c770      r76       1
    c770      r77       1
    c771      Obj       72
    c771      r76       1
    c771      r77       1
    c772      Obj       73
    c772      r76       1
    c772      r77       1
    c773      Obj       74
    c773      r76       1
    c773      r77       1
    c774      Obj       75
    c774      r76       1
    c774      r77       1
    c775      Obj       76
    c775      r77       1
    c776      Obj       77
    c776      r77       1
    c777      Obj       78
    c777      r77       1
    c778      Obj       79
    c778      r77       1
    c779      Obj       80
    c779      r77       1
    c780      Obj       81
    c780      r77       1
    c780      r78       1
    c781      Obj       82
    c781      r77       1
    c781      r78       1
    c782      Obj       83
    c782      r77       1
    c782      r78       1
    c783      Obj       84
    c783      r77       1
    c783      r78       1
    c784      Obj       85
    c784      r77       1
    c784      r78       1
    c785      Obj       86
    c785      r78       1
    c786      Obj       87
    c786      r78       1
    c787      Obj       88
    c787      r78       1
    c788      Obj       89
    c788      r78       1
    c789      Obj       90
    c789      r78       1
    c790      Obj       91
    c790      r78       1
    c790      r79       1
    c791      Obj       92
    c791      r78       1
    c791      r79       1
    c792      Obj       93
    c792      r78       1
    c792      r79       1
    c793      Obj       94
    c793      r78       1
    c793      r79       1
    c794      Obj       95
    c794      r78       1
    c794      r79       1
    c795      Obj       96
    c795      r79       1
    c796      Obj       97
    c796      r79       1
    c797      Obj       98
    c797      r79       1
    c798      Obj       99
    c798      r79       1
    c799      Obj       100
    c799      r79       1
    c800      Obj       1
    c800      r79       1
    c800      r80       1
    c801      Obj       2
    c801      r79       1
    c801      r80       1
    c802      Obj       3
    c802      r79       1
    c802      r80       1
    c803      Obj       4
    c803      r79       1
    c803      r80       1
    c804      Obj       5
    c804      r79       1
    c804      r80       1
    c805      Obj       6
    c805      r80       1
    c806      Obj       7
    c806      r80       1
    c807      Obj       8
    c807      r80       1
    c808      Obj       9
    c808      r80       1
    c809      Obj       10
    c809      r80       1
    c810      Obj       11
    c810      r80       1
    c810      r81       1
    c811      Obj       12
    c811      r80       1
    c811      r81       1
    c812      Obj       13
    c812      r80       1
    c812      r81       1
    c813      Obj       14
    c813      r80       1
    c813      r81       1
    c814      Obj       15
    c814      r80       1
    c814      r81       1
    c815      Obj       16
    c815      r81       1
    c816      Obj       17
    c816      r81       1
    c817      Obj       18
    c817      r81       1
    c818      Obj       19
    c818      r81       1
    c819      Obj       20
    c819      r81       1
    c820      Obj       21
    c820      r81       1
    c820      r82       1
    c821      Obj       22
    c821      r81       1
    c821      r82       1
    c822      Obj       23
    c822      r81       1
    c822      r82       1
    c823      Obj       24
    c823      r81       1
    c823      r82       1
    c824      Obj       25
    c824      r81       1
    c824      r82       1
    c825      Obj       26
    c825      r82       1
    c826      Obj       27
    c826      r82       1
    c827      Obj       28
    c827      r82       1
    c828      Obj       29
    c828      r82       1
    c829      Obj       30
    c829      r82       1
    c830      Obj       31
    c830      r82       1
    c830      r83       1
    c831      Obj       32
    c831      r82       1
    c831      r83       1
    c832      Obj       33
    c832      r82       1
    c832      r83       1
    c833      Obj       34
    c833      r82       1
    c833      r83       1
    c834      Obj       35
    c834      r82       1
    c834      r83       1
    c835      Obj       36
    c835      r83       1
    c836      Obj       37
    c836      r83       1
    c837      Obj       38
    c837      r83       1
    c838      Obj       39
    c838      r83       1
    c839      Obj       40
    c839      r83       1
    c840      Obj       41
    c840      r83       1
    c840      r84       1
    c841      Obj       42
    c841      r83       1
    c841      r84       1
    c842      Obj       43
    c842      r83       1
    c842      r84       1
    c843      Obj       44
    c843      r83       1
    c843      r84       1
    c844      Obj       45
    c844      r83       1
    c844      r84       1
    c845      Obj       46
    c845      r84       1
    c846      Obj       47
    c846      r84       1
    c847      Obj       48
    c847      r84       1
    c848      Obj       49
    c848      r84       1
    c849      Obj       50
    c849      r84       1
    c850      Obj       51
    c850      r84       1
    c850      r85       1
    c851      Obj       52
    c851      r84       1
    c851      r85       1
    c852      Obj       53
    c852      r84       1
    c852      r85       1
    c853      Obj       54
    c853      r84       1
    c853      r85       1
    c854      Obj       55
    c854      r84       1
    c854      r85       1
    c855      Obj       56
    c855      r85       1
    c856      Obj       57
    c856      r85       1
    c857      Obj       58
    c857      r85       1
    c858      Obj       59
    c858      r85       1
    c859      Obj       60
    c859      r85       1
    c860      Obj       61
    c860      r85       1
    c860      r86       1
    c861      Obj       62
    c861      r85       1
    c861      r86       1
    c862      Obj       63
    c862      r85       1
    c862      r86       1
    c863      Obj       64
    c863      r85       1
    c863      r86       1
    c864      Obj       65
    c864      r85       1
    c864      r86       1
    c865      Obj       66
    c865      r86       1
    c866      Obj       67
    c866      r86       1
    c867      Obj       68
    c867      r86       1
    c868      Obj       69
    c868      r86       1
    c869      Obj       70
    c869      r86       1
    c870      Obj       71
    c870      r86       1
    c870      r87       1
    c871      Obj       72
    c871      r86       1
    c871      r87       1
    c872      Obj       73
    c872      r86       1
    c872      r87       1
    c873      Obj       74
    c873      r86       1
    c873      r87       1
    c874      Obj       75
    c874      r86       1
    c874      r87       1
    c875      Obj       76
    c875      r87       1
    c876      Obj       77
    c876      r87       1
    c877      Obj       78
    c877      r87       1
    c878      Obj       79
    c878      r87       1
    c879      Obj       80
    c879      r87       1
    c880      Obj       81
    c880      r87       1
    c880      r88       1
    c881      Obj       82
    c881      r87       1
    c881      r88       1
    c882      Obj       83
    c882      r87       1
    c882      r88       1
    c883      Obj       84
    c883      r87       1
    c883      r88       1
    c884      Obj       85
    c884      r87       1
    c884      r88       1
    c885      Obj       86
    c885      r88       1
    c886      Obj       87
    c886      r88       1
    c887      Obj       88
    c887      r88       1
    c888      Obj       89
    c888      r88       1
    c889      Obj       90
    c889      r88       1
    c890      Obj       91
    c890      r88       1
    c890      r89       1
    c891      Obj       92
    c891      r88       1
    c891      r89       1
    c892      Obj       93
    c892      r88       1
    c892      r89       1
    c893      Obj       94
    c893      r88       1
    c893      r89       1
    c894      Obj       95
    c894      r88       1
    c894      r89       1
    c895      Obj       96
    c895      r89       1
    c896      Obj       97
    c896      r89       1
    c897      Obj       98
    c897      r89       1
    c898      Obj       99
    c898      r89       1
    c899      Obj       100
    c899      r89       1
    c900      Obj       1
    c900      r89       1
    c900      r90       1
    c901      Obj       2
    c901      r89       1
    c901      r90       1
    c902      Obj       3
    c902      r89       1
    c902      r90       1
    c903      Obj       4
    c903      r89       1
    c903      r90       1
    c904      Obj       5
    c904      r89       1
    c904      r90       1
    c905      Obj       6
    c905      r90       1
    c906      Obj       7
    c906      r90       1
    c907      Obj       8
    c907      r90       1
    c908      Obj       9
    c908      r90       1
    c909      Obj       10
    c909      r90       1
    c910      Obj       11
    c910      r90       1
    c910      r91       1
    c911      Obj       12
    c911      r90       1
    c911      r91       1
    c912      Obj       13
    c912      r90       1
    c912      r91       1
    c913      Obj       14
    c913      r90       1
    c913      r91       1
    c914      Obj       15
    c914      r90       1
    c914      r91       1
    c915      Obj       16
    c915      r91       1
    c916      Obj       17
    c916      r91       1
    c917      Obj       18
    c917      r91       1
    c918      Obj       19
    c918      r91       1
    c919      Obj       20
    c919      r91       1
    c920      Obj       21
    c920      r91       1
    c920      r92       1
    c921      Obj       22
    c921      r91       1
    c921      r92       1
    c922      Obj       23
    c922      r91       1
    c922      r92       1
    c923      Obj       24
    c923      r91       1
    c923      r92       1
    c924      Obj       25
    c924      r91       1
    c924      r92       1
    c925      Obj       26
    c925      r92       1
    c926      Obj       27
    c926      r92       1
    c927      Obj       28
    c927      r92       1
    c928      Obj       29
    c928      r92       1
    c929      Obj       30
    c929      r92       1
    c930      Obj       31
    c930      r92       1
    c930      r93       1
    c931      Obj       32
    c931      r92       1
    c931      r93       1
    c932      Obj       33
    c932      r92       1
    c932      r93       1
    c933      Obj       34
    c933      r92       1
    c933      r93       1
    c934      Obj       35
    c934      r92       1
    c934      r93       1
    c935      Obj       36
    c935      r93       1
    c936      Obj       37
    c936      r93       1
    c937      Obj       38
    c937      r93       1
    c938      Obj       39
    c938      r93       1
    c939      Obj       40
    c939      r93       1
    c940      Obj       41
    c940      r93       1
    c940      r94       1
    c941      Obj       42
    c941      r93       1
    c941      r94       1
    c942      Obj       43
    c942      r93       1
    c942      r94       1
    c943      Obj       44
    c943      r93       1
    c943      r94       1
    c944      Obj       45
    c944      r93       1
    c944      r94       1
    c945      Obj       46
    c945      r94       1
    c946      Obj       47
    c946      r94       1
    c947      Obj       48
    c947      r94       1
    c948      Obj       49
    c948      r94       1
    c949      Obj       50
    c949      r94       1
    c950      Obj       51
    c950      r94       1
    c950      r95       1
    c951      Obj       52
    c951      r94       1
    c951      r95       1
    c952      Obj       53
    c952      r94       1
    c952      r95       1
    c953      Obj       54
    c953      r94       1
    c953      r95       1
    c954      Obj       55
    c954      r94       1
    c954      r95       1
    c955      Obj       56
    c955      r95       1
    c956      Obj       57
    c956      r95       1
    c957      Obj       58
    c957      r95       1
    c958      Obj       59
    c958      r95       1
    c959      Obj       60
    c959      r95       1
    c960      Obj       61
    c960      r95       1
    c960      r96       1
    c961      Obj       62
    c961      r95       1
    c961      r96       1
    c962      Obj       63
    c962      r95       1
    c962      r96       1
    c963      Obj       64
    c963      r95       1
    c963      r96       1
    c964      Obj       65
    c964      r95       1
    c964      r96       1
    c965      Obj       66
    c965      r96       1
    c966      Obj       67
    c966      r96       1
    c967      Obj       68
    c967      r96       1
    c968      Obj       69
    c968      r96       1
    c969      Obj       70
    c969      r96       1
    c970      Obj       71
    c970      r96       1
    c970      r97       1
    c971      Obj       72
    c971      r96       1
    c971      r97       1
    c972      Obj       73
    c972      r96       1
    c972      r97       1
    c973      Obj       74
    c973      r96       1
    c973      r97       1
    c974      Obj       75
    c974      r96       1
    c974      r97       1
    c975      Obj       76
    c975      r97       1
    c976      Obj       77
    c976      r97       1
    c977      Obj       78
    c977      r97       1
    c978      Obj       79
    c978      r97       1
    c979      Obj       80
    c979      r97       1
    c980      Obj       81
    c980      r97       1
    c980      r98       1
    c981      Obj       82
    c981      r97       1
    c981      r98       1
    c982      Obj       83
    c982      r97       1
    c982      r98       1
    c983      Obj       84
    c983      r97       1
    c983      r98       1
    c984      Obj       85
    c984      r97       1
    c984      r98       1
    c985      Obj       86
    c985      r98       1
    c986      Obj       87
    c986      r98       1
    c987      Obj       88
    c987      r98       1
    c988      Obj       89
    c988      r98       1
    c989      Obj       90
    c989      r98       1
    c990      Obj       91
    c990      r98       1
    c990      r99       1
    c991      Obj       92
    c991      r98       1
    c991      r99       1
    c992      Obj       93
    c992      r98       1
    c992      r99       1
    c993      Obj       94
    c993      r98       1
    c993      r99       1
    c994      Obj       95
    c994      r98       1
    c994      r99       1
    c995      Obj       96
    c995      r99       1
    c996      Obj       97
    c996      r99       1
    c997      Obj       98
    c997      r99       1
    c998      Obj       99
    c998      r99       1
    c999      Obj       100
    c999      r99       1
    c1000     Obj       1
    c1000     r99       1
    c1000     r100      1
    c1001     Obj       2
    c1001     r99       1
    c1001     r100      1
    c1002     Obj       3
    c1002     r99       1
    c1002     r100      1
    c1003     Obj       4
    c1003     r99       1
    c1003     r100      1
    c1004     Obj       5
    c1004     r99       1
    c1004     r100      1
    c1005     Obj       6
    c1005     r100      1
    c1006     Obj       7
    c1006     r100      1
    c1007     Obj       8
    c1007     r100      1
    c1008     Obj       9
    c1008     r100      1
    c1009     Obj       10
    c1009     r100      1
    c1010     Obj       11
    c1010     r100      1
    c1010     r101      1
    c1011     Obj       12
    c1011     r100      1
    c1011     r101      1
    c1012     Obj       13
    c1012     r100      1
    c1012     r101      1
    c1013     Obj       14
    c1013     r100      1
    c1013     r101      1
    c1014     Obj       15
    c1014     r100      1
    c1014     r101      1
    c1015     Obj       16
    c1015     r101      1
    c1016     Obj       17
    c1016     r101      1
    c1017     Obj       18
    c1017     r101      1
    c1018     Obj       19
    c1018     r101      1
    c1019     Obj       20
    c1019     r101      1
    c1020     Obj       21
    c1020     r101      1
    c1020     r102      1
    c1021     Obj       22
    c1021     r101      1
    c1021     r102      1
    c1022     Obj       23
    c1022     r101      1
    c1022     r102      1
    c1023     Obj       24
    c1023     r101      1
    c1023     r102      1
    c1024     Obj       25
    c1024     r101      1
    c1024     r102      1
    c1025     Obj       26
    c1025     r102      1
    c1026     Obj       27
    c1026     r102      1
    c1027     Obj       28
    c1027     r102      1
    c1028     Obj       29
    c1028     r102      1
    c1029     Obj       30
    c1029     r102      1
    c1030     Obj       31
    c1030     r102      1
    c1030     r103      1
    c1031     Obj       32
    c1031     r102      1
    c1031     r103      1
    c1032     Obj       33
    c1032     r102      1
    c1032     r103      1
    c1033     Obj       34
    c1033     r102      1
    c1033     r103      1
    c1034     Obj       35
    c1034     r102      1
    c1034     r103      1
    c1035     Obj       36
    c1035     r103      1
    c1036     Obj       37
    c1036     r103      1
    c1037     Obj       38
    c1037     r103      1
    c1038     Obj       39
    c1038     r103      1
    c1039     Obj       40
    c1039     r103      1
    c1040     Obj       41
    c1040     r103      1
    c1040     r104      1
    c1041     Obj       42
    c1041     r103      1
    c1041     r104      1
    c1042     Obj       43
    c1042     r103      1
    c1042     r104      1
    c1043     Obj       44
    c1043     r103      1
    c1043     r104      1
    c1044     Obj       45
    c1044     r103      1
    c1044     r104      1
    c1045     Obj       46
    c1045     r104      1
    c1046     Obj       47
    c1046     r104      1
    c1047     Obj       48
    c1047     r104      1
    c1048     Obj       49
    c1048     r104      1
    c1049     Obj       50
    c1049     r104      1
    c1050     Obj       51
    c1050     r104      1
    c1050     r105      1
    c1051     Obj       52
    c1051     r104      1
    c1051     r105      1
    c1052     Obj       53
    c1052     r104      1
    c1052     r105      1
    c1053     Obj       54
    c1053     r104      1
    c1053     r105      1
    c1054     Obj       55
    c1054     r104      1
    c1054     r105      1
    c1055     Obj       56
    c1055     r105      1
    c1056     Obj       57
    c1056     r105      1
    c1057     Obj       58
    c1057     r105      1
    c1058     Obj       59
    c1058     r105      1
    c1059     Obj       60
    c1059     r105      1
    c1060     Obj       61
    c1060     r105      1
    c1060     r106      1
    c1061     Obj       62
    c1061     r105      1
    c1061     r106      1
    c1062     Obj       63
    c1062     r105      1
    c1062     r106      1
    c1063     Obj       64
    c1063     r105      1
    c1063     r106      1
    c1064     Obj       65
    c1064     r105      1
    c1064     r106      1
    c1065     Obj       66
    c1065     r106      1
    c1066     Obj       67
    c1066     r106      1
    c1067     Obj       68
    c1067     r106      1
    c1068     Obj       69
    c1068     r106      1
    c1069     Obj       70
    c1069     r106      1
    c1070     Obj       71
    c1070     r106      1
    c1070     r107      1
    c1071     Obj       72
    c1071     r106      1
    c1071     r107      1
    c1072     Obj       73
    c1072     r106      1
    c1072     r107      1
    c1073     Obj       74
    c1073     r106      1
    c1073     r107      1
    c1074     Obj       75
    c1074     r106      1
    c1074     r107      1
    c1075     Obj       76
    c1075     r107      1
    c1076     Obj       77
    c1076     r107      1
    c1077     Obj       78
    c1077     r107      1
    c1078     Obj       79
    c1078     r107      1
    c1079     Obj       80
    c1079     r107      1
    c1080     Obj       81
    c1080     r107      1
    c1080     r108      1
    c1081     Obj       82
    c1081     r107      1
    c1081     r108      1
    c1082     Obj       83
    c1082     r107      1
    c1082     r108      1
    c1083     Obj       84
    c1083     r107      1
    c1083     r108      1
    c1084     Obj       85
    c1084     r107      1
    c1084     r108      1
    c1085     Obj       86
    c1085     r108      1
    c1086     Obj       87
    c1086     r108      1
    c1087     Obj       88
    c1087     r108      1
    c1088     Obj       89
    c1088     r108      1
    c1089     Obj       90
    c1089     r108      1
    c1090     Obj       91
    c1090     r108      1
    c1090     r109      1
    c1091     Obj       92
    c1091     r108      1
    c1091     r109      1
    c1092     Obj       93
    c1092     r108      1
    c1092     r109      1
    c1093     Obj       94
    c1093     r108      1
    c1093     r109      1
    c1094     Obj       95
    c1094     r108      1
    c1094     r109      1
    c1095     Obj       96
    c1095     r109      1
    c1096     Obj       97
    c1096     r109      1
    c1097     Obj       98
    c1097     r109      1
    c1098     Obj       99
    c1098     r109      1
    c1099     Obj       100
    c1099     r109      1
    c1100     Obj       1
    c1100     r109      1
    c1100     r110      1
    c1101     Obj       2
    c1101     r109      1
    c1101     r110      1
    c1102     Obj       3
    c1102     r109      1
    c1102     r110      1
    c1103     Obj       4
    c1103     r109      1
    c1103     r110      1
    c1104     Obj       5
    c1104     r109      1
    c1104     r110      1
    c1105     Obj       6
    c1105     r110      1
    c1106     Obj       7
    c1106     r110      1
    c1107     Obj       8
    c1107     r110      1
    c1108     Obj       9
    c1108     r110      1
    c1109     Obj       10
    c1109     r110      1
    c1110     Obj       11
    c1110     r110      1
    c1110     r111      1
    c1111     Obj       12
    c1111     r110      1
    c1111     r111      1
    c1112     Obj       13
    c1112     r110      1
    c1112     r111      1
    c1113     Obj       14
    c1113     r110      1
    c1113     r111      1
    c1114     Obj       15
    c1114     r110      1
    c1114     r111      1
    c1115     Obj       16
    c1115     r111      1
    c1116     Obj       17
    c1116     r111      1
    c1117     Obj       18
    c1117     r111      1
    c1118     Obj       19
    c1118     r111      1
    c1119     Obj       20
    c1119     r111      1
    c1120     Obj       21
    c1120     r111      1
    c1120     r112      1
    c1121     Obj       22
    c1121     r111      1
    c1121     r112      1
    c1122     Obj       23
    c1122     r111      1
    c1122     r112      1
    c1123     Obj       24
    c1123     r111      1
    c1123     r112      1
    c1124     Obj       25
    c1124     r111      1
    c1124     r112      1
    c1125     Obj       26
    c1125     r112      1
    c1126     Obj       27
    c1126     r112      1
    c1127     Obj       28
    c1127     r112      1
    c1128     Obj       29
    c1128     r112      1
    c1129     Obj       30
    c1129     r112      1
    c1130     Obj       31
    c1130     r112      1
    c1130     r113      1
    c1131     Obj       32
    c1131     r112      1
    c1131     r113      1
    c1132     Obj       33
    c1132     r112      1
    c1132     r113      1
    c1133     Obj       34
    c1133     r112      1
    c1133     r113      1
    c1134     Obj       35
    c1134     r112      1
    c1134     r113      1
    c1135     Obj       36
    c1135     r113      1
    c1136     Obj       37
    c1136     r113      1
    c1137     Obj       38
    c1137     r113      1
    c1138     Obj       39
    c1138     r113      1
    c1139     Obj       40
    c1139     r113      1
    c1140     Obj       41
    c1140     r113      1
    c1140     r114      1
    c1141     Obj       42
    c1141     r113      1
    c1141     r114      1
    c1142     Obj       43
    c1142     r113      1
    c1142     r114      1
    c1143     Obj       44
    c1143     r113      1
    c1143     r114      1
    c1144     Obj       45
    c1144     r113      1
    c1144     r114      1
    c1145     Obj       46
    c1145     r114      1
    c1146     Obj       47
    c1146     r114      1
    c1147     Obj       48
    c1147     r114      1
    c1148     Obj       49
    c1148     r114      1
    c1149     Obj       50
    c1149     r114      1
    c1150     Obj       51
    c1150     r114      1
    c1150     r115      1
    c1151     Obj       52
    c1151     r114      1
    c1151     r115      1
    c1152     Obj       53
    c1152     r114      1
    c1152     r115      1
    c1153     Obj       54
    c1153     r114      1
    c1153     r115      1
    c1154     Obj       55
    c1154     r114      1
    c1154     r115      1
    c1155     Obj       56
    c1155     r115      1
    c1156     Obj       57
    c1156     r115      1
    c1157     Obj       58
    c1157     r115      1
    c1158     Obj       59
    c1158     r115      1
    c1159     Obj       60
    c1159     r115      1
    c1160     Obj       61
    c1160     r115      1
    c1160     r116      1
    c1161     Obj       62
    c1161     r115      1
    c1161     r116      1
    c1162     Obj       63
    c1162     r115      1
    c1162     r116      1
    c1163     Obj       64
    c1163     r115      1
    c1163     r116      1
    c1164     Obj       65
    c1164     r115      1
    c1164     r116      1
    c1165     Obj       66
    c1165     r116      1
    c1166     Obj       67
    c1166     r116      1
    c1167     Obj       68
    c1167     r116      1
    c1168     Obj       69
    c1168     r116      1
    c1169     Obj       70
    c1169     r116      1
    c1170     Obj       71
    c1170     r116      1
    c1170     r117      1
    c1171     Obj       72
    c1171     r116      1
    c1171     r117      1
    c1172     Obj       73
    c1172     r116      1
    c1172     r117      1
    c1173     Obj       74
    c1173     r116      1
    c1173     r117      1
    c1174     Obj       75
    c1174     r116      1
    c1174     r117      1
    c1175     Obj       76
    c1175     r117      1
    c1176     Obj       77
    c1176     r117      1
    c1177     Obj       78
    c1177     r117      1
    c1178     Obj       79
    c1178     r117      1
    c1179     Obj       80
    c1179     r117      1
    c1180     Obj       81
    c1180     r117      1
    c1180     r118      1
    c1181     Obj       82
    c1181     r117      1
    c1181     r118      1
    c1182     Obj       83
    c1182     r117      1
    c1182     r118      1
    c1183     Obj       84
    c1183     r117      1
    c1183     r118      1
    c1184     Obj       85
    c1184     r117      1
    c1184     r118      1
    c1185     Obj       86
    c1185     r118      1
    c1186     Obj       87
    c1186     r118      1
    c1187     Obj       88
    c1187     r118      1
    c1188     Obj       89
    c1188     r118      1
    c1189     Obj       90
    c1189     r118      1
    c1190     Obj       91
    c1190     r118      1
    c1190     r119      1
    c1191     Obj       92
    c1191     r118      1
    c1191     r119      1
    c1192     Obj       93
    c1192     r118      1
    c1192     r119      1
    c1193     Obj       94
    c1193     r118      1
    c1193     r119      1
    c1194     Obj       95
    c1194     r118      1
    c1194     r119      1
    c1195     Obj       96
    c1195     r119      1
    c1196     Obj       97
    c1196     r119      1
    c1197     Obj       98
    c1197     r119      1
    c1198     Obj       99
    c1198     r119      1
    c1199     Obj       100
    c1199     r119      1
    c1200     Obj       1
    c1200     r119      1
    c1200     r120      1
    c1201     Obj       2
    c1201     r119      1
    c1201     r120      1
    c1202     Obj       3
    c1202     r119      1
    c1202     r120      1
    c1203     Obj       4
    c1203     r119      1
    c1203     r120      1
    c1204     Obj       5
    c1204     r119      1
    c1204     r120      1
    c1205     Obj       6
    c1205     r120      1
    c1206     Obj       7
    c1206     r120      1
    c1207     Obj       8
    c1207     r120      1
    c1208     Obj       9
    c1208     r120      1
    c1209     Obj       10
    c1209     r120      1
    c1210     Obj       11
    c1210     r120      1
    c1210     r121      1
    c1211     Obj       12
    c1211     r120      1
    c1211     r121      1
    c1212     Obj       13
    c1212     r120      1
    c1212     r121      1
    c1213     Obj       14
    c1213     r120      1
    c1213     r121      1
    c1214     Obj       15
    c1214     r120      1
    c1214     r121      1
    c1215     Obj       16
    c1215     r121      1
    c1216     Obj       17
    c1216     r121      1
    c1217     Obj       18
    c1217     r121      1
    c1218     Obj       19
    c1218     r121      1
    c1219     Obj       20
    c1219     r121      1
    c1220     Obj       21
    c1220     r121      1
    c1220     r122      1
    c1221     Obj       22
    c1221     r121      1
    c1221     r122      1
    c1222     Obj       23
    c1222     r121      1
    c1222     r122      1
    c1223     Obj       24
    c1223     r121      1
    c1223     r122      1
    c1224     Obj       25
    c1224     r121      1
    c1224     r122      1
    c1225     Obj       26
    c1225     r122      1
    c1226     Obj       27
    c1226     r122      1
    c1227     Obj       28
    c1227     r122      1
    c1228     Obj       29
    c1228     r122      1
    c1229     Obj       30
    c1229     r122      1
    c1230     Obj       31
    c1230     r122      1
    c1230     r123      1
    c1231     Obj       32
    c1231     r122      1
    c1231     r123      1
    c1232     Obj       33
    c1232     r122      1
    c1232     r123      1
    c1233     Obj       34
    c1233     r122      1
    c1233     r123      1
    c1234     Obj       35
    c1234     r122      1
    c1234     r123      1
    c1235     Obj       36
    c1235     r123      1
    c1236     Obj       37
    c1236     r123      1
    c1237     Obj       38
    c1237     r123      1
    c1238     Obj       39
    c1238     r123      1
    c1239     Obj       40
    c1239     r123      1
    c1240     Obj       41
    c1240     r123      1
    c1240     r124      1
    c1241     Obj       42
    c1241     r123      1
    c1241     r124      1
    c1242     Obj       43
    c1242     r123      1
    c1242     r124      1
    c1243     Obj       44
    c1243     r123      1
    c1243     r124      1
    c1244     Obj       45
    c1244     r123      1
    c1244     r124      1
    c1245     Obj       46
    c1245     r124      1
    c1246     Obj       47
    c1246     r124      1
    c1247     Obj       48
    c1247     r124      1
    c1248     Obj       49
    c1248     r124      1
    c1249     Obj       50
    c1249     r124      1
    c1250     Obj       51
    c1250     r124      1
    c1250     r125      1
    c1251     Obj       52
    c1251     r124      1
    c1251     r125      1
    c1252     Obj       53
    c1252     r124      1
    c1252     r125      1
    c1253     Obj       54
    c1253     r124      1
    c1253     r125      1
    c1254     Obj       55
    c1254     r124      1
    c1254     r125      1
    c1255     Obj       56
    c1255     r125      1
    c1256     Obj       57
    c1256     r125      1
    c1257     Obj       58
    c1257     r125      1
    c1258     Obj       59
    c1258     r125      1
    c1259     Obj       60
    c1259     r125      1
    c1260     Obj       61
    c1260     r125      1
    c1260     r126      1
    c1261     Obj       62
    c1261     r125      1
    c1261     r126      1
    c1262     Obj       63
    c1262     r125      1
    c1262     r126      1
    c1263     Obj       64
    c1263     r125      1
    c1263     r126      1
    c1264     Obj       65
    c1264     r125      1
    c1264     r126      1
    c1265     Obj       66
    c1265     r126      1
    c1266     Obj       67
    c1266     r126      1
    c1267     Obj       68
    c1267     r126      1
    c1268     Obj       69
    c1268     r126      1
    c1269     Obj       70
    c1269     r126      1
    c1270     Obj       71
    c1270     r126      1
    c1270     r127      1
    c1271     Obj       72
    c1271     r126      1
    c1271     r127      1
    c1272     Obj       73
    c1272     r126      1
    c1272     r127      1
    c1273     Obj       74
    c1273     r126      1
    c1273     r127      1
    c1274     Obj       75
    c1274     r126      1
    c1274     r127      1
    c1275     Obj       76
    c1275     r127      1
    c1276     Obj       77
    c1276     r127      1
    c1277     Obj       78
    c1277     r127      1
    c1278     Obj       79
    c1278     r127      1
    c1279     Obj       80
    c1279     r127      1
    c1280     Obj       81
    c1280     r127      1
    c1280     r128      1
    c1281     Obj       82
    c1281     r127      1
    c1281     r128      1
    c1282     Obj       83
    c1282     r127      1
    c1282     r128      1
    c1283     Obj       84
    c1283     r127      1
    c1283     r128      1
    c1284     Obj       85
    c1284     r127      1
    c1284     r128      1
    c1285     Obj       86
    c1285     r128      1
    c1286     Obj       87
    c1286     r128      1
    c1287     Obj       88
    c1287     r128      1
    c1288     Obj       89
    c1288     r128      1
    c1289     Obj       90
    c1289     r128      1
    c1290     Obj       91
    c1290     r128      1
    c1290     r129      1
    c1291     Obj       92
    c1291     r128      1
    c1291     r129      1
    c1292     Obj       93
    c1292     r128      1
    c1292     r129      1
    c1293     Obj       94
    c1293     r128      1
    c1293     r129      1
    c1294     Obj       95
    c1294     r128      1
    c1294     r129      1
    c1295     Obj       96
    c1295     r129      1
    c1296     Obj       97
    c1296     r129      1
    c1297     Obj       98
    c1297     r129      1
    c1298     Obj       99
    c1298     r129      1
    c1299     Obj       100
    c1299     r129      1
    c1300     Obj       1
    c1300     r129      1
    c1300     r130      1
    c1301     Obj       2
    c1301     r129      1
    c1301     r130      1
    c1302     Obj       3
    c1302     r129      1
    c1302     r130      1
    c1303     Obj       4
    c1303     r129      1
    c1303     r130      1
    c1304     Obj       5
    c1304     r129      1
    c1304     r130      1
    c1305     Obj       6
    c1305     r130      1
    c1306     Obj       7
    c1306     r130      1
    c1307     Obj       8
    c1307     r130      1
    c1308     Obj       9
    c1308     r130      1
    c1309     Obj       10
    c1309     r130      1
    c1310     Obj       11
    c1310     r130      1
    c1310     r131      1
    c1311     Obj       12
    c1311     r130      1
    c1311     r131      1
    c1312     Obj       13
    c1312     r130      1
    c1312     r131      1
    c1313     Obj       14
    c1313     r130      1
    c1313     r131      1
    c1314     Obj       15
    c1314     r130      1
    c1314     r131      1
    c1315     Obj       16
    c1315     r131      1
    c1316     Obj       17
    c1316     r131      1
    c1317     Obj       18
    c1317     r131      1
    c1318     Obj       19
    c1318     r131      1
    c1319     Obj       20
    c1319     r131      1
    c1320     Obj       21
    c1320     r131      1
    c1320     r132      1
    c1321     Obj       22
    c1321     r131      1
    c1321     r132      1
    c1322     Obj       23
    c1322     r131      1
    c1322     r132      1
    c1323     Obj       24
    c1323     r131      1
    c1323     r132      1
    c1324     Obj       25
    c1324     r131      1
    c1324     r132      1
    c1325     Obj       26
    c1325     r132      1
    c1326     Obj       27
    c1326     r132      1
    c1327     Obj       28
    c1327     r132      1
    c1328     Obj       29
    c1328     r132      1
    c1329     Obj       30
    c1329     r132      1
    c1330     Obj       31
    c1330     r132      1
    c1330     r133      1
    c1331     Obj       32
    c1331     r132      1
    c1331     r133      1
    c1332     Obj       33
    c1332     r132      1
    c1332     r133      1
    c1333     Obj       34
    c1333     r132      1
    c1333     r133      1
    c1334     Obj       35
    c1334     r132      1
    c1334     r133      1
    c1335     Obj       36
    c1335     r133      1
    c1336     Obj       37
    c1336     r133      1
    c1337     Obj       38
    c1337     r133      1
    c1338     Obj       39
    c1338     r133      1
    c1339     Obj       40
    c1339     r133      1
    c1340     Obj       41
    c1340     r133      1
    c1340     r134      1
    c1341     Obj       42
    c1341     r133      1
    c1341     r134      1
    c1342     Obj       43
    c1342     r133      1
    c1342     r134      1
    c1343     Obj       44
    c1343     r133      1
    c1343     r134      1
    c1344     Obj       45
    c1344     r133      1
    c1344     r134      1
    c1345     Obj       46
    c1345     r134      1
    c1346     Obj       47
    c1346     r134      1
    c1347     Obj       48
    c1347     r134      1
    c1348     Obj       49
    c1348     r134      1
    c1349     Obj       50
    c1349     r134      1
    c1350     Obj       51
    c1350     r134      1
    c1350     r135      1
    c1351     Obj       52
    c1351     r134      1
    c1351     r135      1
    c1352     Obj       53
    c1352     r134      1
    c1352     r135      1
    c1353     Obj       54
    c1353     r134      1
    c1353     r135      1
    c1354     Obj       55
    c1354     r134      1
    c1354     r135      1
    c1355     Obj       56
    c1355     r135      1
    c1356     Obj       57
    c1356     r135      1
    c1357     Obj       58
    c1357     r135      1
    c1358     Obj       59
    c1358     r135      1
    c1359     Obj       60
    c1359     r135      1
    c1360     Obj       61
    c1360     r135      1
    c1360     r136      1
    c1361     Obj       62
    c1361     r135      1
    c1361     r136      1
    c1362     Obj       63
    c1362     r135      1
    c1362     r136      1
    c1363     Obj       64
    c1363     r135      1
    c1363     r136      1
    c1364     Obj       65
    c1364     r135      1
    c1364     r136      1
    c1365     Obj       66
    c1365     r136      1
    c1366     Obj       67
    c1366     r136      1
    c1367     Obj       68
    c1367     r136      1
    c1368     Obj       69
    c1368     r136      1
    c1369     Obj       70
    c1369     r136      1
    c1370     Obj       71
    c1370     r136      1
    c1370     r137      1
    c1371     Obj       72
    c1371     r136      1
    c1371     r137      1
    c1372     Obj       73
    c1372     r136      1
    c1372     r137      1
    c1373     Obj       74
    c1373     r136      1
    c1373     r137      1
    c1374     Obj       75
    c1374     r136      1
    c1374     r137      1
    c1375     Obj       76
    c1375     r137      1
    c1376     Obj       77
    c1376     r137      1
    c1377     Obj       78
    c1377     r137      1
    c1378     Obj       79
    c1378     r137      1
    c1379     Obj       80
    c1379     r137      1
    c1380     Obj       81
    c1380     r137      1
    c1380     r138      1
    c1381     Obj       82
    c1381     r137      1
    c1381     r138      1
    c1382     Obj       83
    c1382     r137      1
    c1382     r138      1
    c1383     Obj       84
    c1383     r137      1
    c1383     r138      1
    c1384     Obj       85
    c1384     r137      1
    c1384     r138      1
    c1385     Obj       86
    c1385     r138      1
    c1386     Obj       87
    c1386     r138      1
    c1387     Obj       88
    c1387     r138      1
    c1388     Obj       89
    c1388     r138      1
    c1389     Obj       90
    c1389     r138      1
    c1390     Obj       91
    c1390     r138      1
    c1390     r139      1
    c1391     Obj       92
    c1391     r138      1
    c1391     r139      1
    c1392     Obj       93
    c1392     r138      1
    c1392     r139      1
    c1393     Obj       94
    c1393     r138      1
    c1393     r139      1
    c1394     Obj       95
    c1394     r138      1
    c1394     r139      1
    c1395     Obj       96
    c1395     r139      1
    c1396     Obj       97
    c1396     r139      1
    c1397     Obj       98
    c1397     r139      1
    c1398     Obj       99
    c1398     r139      1
    c1399     Obj       100
    c1399     r139      1
    c1400     Obj       1
    c1400     r139      1
    c1400     r140      1
    c1401     Obj       2
    c1401     r139      1
    c1401     r140      1
    c1402     Obj       3
    c1402     r139      1
    c1402     r140      1
    c1403     Obj       4
    c1403     r139      1
    c1403     r140      1
    c1404     Obj       5
    c1404     r139      1
    c1404     r140      1
    c1405     Obj       6
    c1405     r140      1
    c1406     Obj       7
    c1406     r140      1
    c1407     Obj       8
    c1407     r140      1
    c1408     Obj       9
    c1408     r140      1
    c1409     Obj       10
    c1409     r140      1
    c1410     Obj       11
    c1410     r140      1
    c1410     r141      1
    c1411     Obj       12
    c1411     r140      1
    c1411     r141      1
    c1412     Obj       13
    c1412     r140      1
    c1412     r141      1
    c1413     Obj       14
    c1413     r140      1
    c1413     r141      1
    c1414     Obj       15
    c1414     r140      1
    c1414     r141      1
    c1415     Obj       16
    c1415     r141      1
    c1416     Obj       17
    c1416     r141      1
    c1417     Obj       18
    c1417     r141      1
    c1418     Obj       19
    c1418     r141      1
    c1419     Obj       20
    c1419     r141      1
    c1420     Obj       21
    c1420     r141      1
    c1420     r142      1
    c1421     Obj       22
    c1421     r141      1
    c1421     r142      1
    c1422     Obj       23
    c1422     r141      1
    c1422     r142      1
    c1423     Obj       24
    c1423     r141      1
    c1423     r142      1
    c1424     Obj       25
    c1424     r141      1
    c1424     r142      1
    c1425     Obj       26
    c1425     r142      1
    c1426     Obj       27
    c1426     r142      1
    c1427     Obj       28
    c1427     r142      1
    c1428     Obj       29
    c1428     r142      1
    c1429     Obj       30
    c1429     r142      1
    c1430     Obj       31
    c1430     r142      1
    c1430     r143      1
    c1431     Obj       32
    c1431     r142      1
    c1431     r143      1
    c1432     Obj       33
    c1432     r142      1
    c1432     r143      1
    c1433     Obj       34
    c1433     r142      1
    c1433     r143      1
    c1434     Obj       35
    c1434     r142      1
    c1434     r143      1
    c1435     Obj       36
    c1435     r143      1
    c1436     Obj       37
    c1436     r143      1
    c1437     Obj       38
    c1437     r143      1
    c1438     Obj       39
    c1438     r143      1
    c1439     Obj       40
    c1439     r143      1
    c1440     Obj       41
    c1440     r143      1
    c1440     r144      1
    c1441     Obj       42
    c1441     r143      1
    c1441     r144      1
    c1442     Obj       43
    c1442     r143      1
    c1442     r144      1
    c1443     Obj       44
    c1443     r143      1
    c1443     r144      1
    c1444     Obj       45
    c1444     r143      1
    c1444     r144      1
    c1445     Obj       46
    c1445     r144      1
    c1446     Obj       47
    c1446     r144      1
    c1447     Obj       48
    c1447     r144      1
    c1448     Obj       49
    c1448     r144      1
    c1449     Obj       50
    c1449     r144      1
    c1450     Obj       51
    c1450     r144      1
    c1450     r145      1
    c1451     Obj       52
    c1451     r144      1
    c1451     r145      1
    c1452     Obj       53
    c1452     r144      1
    c1452     r145      1
    c1453     Obj       54
    c1453     r144      1
    c1453     r145      1
    c1454     Obj       55
    c1454     r144      1
    c1454     r145      1
    c1455     Obj       56
    c1455     r145      1
    c1456     Obj       57
    c1456     r145      1
    c1457     Obj       58
    c1457     r145      1
    c1458     Obj       59
    c1458     r145      1
    c1459     Obj       60
    c1459     r145      1
    c1460     Obj       61
    c1460     r145      1
    c1460     r146      1
    c1461     Obj       62
    c1461     r145      1
    c1461     r146      1
    c1462     Obj       63
    c1462     r145      1
    c1462     r146      1
    c1463     Obj       64
    c1463     r145      1
    c1463     r146      1
    c1464     Obj       65
    c1464     r145      1
    c1464     r146      1
    c1465     Obj       66
    c1465     r146      1
    c1466     Obj       67
    c1466     r146      1
    c1467     Obj       68
    c1467     r146      1
    c1468     Obj       69
    c1468     r146      1
    c1469     Obj       70
    c1469     r146      1
    c1470     Obj       71
    c1470     r146      1
    c1470     r147      1
    c1471     Obj       72
    c1471     r146      1
    c1471     r147      1
    c1472     Obj       73
    c1472     r146      1
    c1472     r147      1
    c1473     Obj       74
    c1473     r146      1
    c1473     r147      1
    c1474     Obj       75
    c1474     r146      1
    c1474     r147      1
    c1475     Obj       76
    c1475     r147      1
    c1476     Obj       77
    c1476     r147      1
    c1477     Obj       78
    c1477     r147      1
    c1478     Obj       79
    c1478     r147      1
    c1479     Obj       80
    c1479     r147      1
    c1480     Obj       81
    c1480     r147      1
    c1480     r148      1
    c1481     Obj       82
    c1481     r147      1
    c1481     r148      1
    c1482     Obj       83
    c1482     r147      1
    c1482     r148      1
    c1483     Obj       84
    c1483     r147      1
    c1483     r148      1
    c1484     Obj       85
    c1484     r147      1
    c1484     r148      1
    c1485     Obj       86
    c1485     r148      1
    c1486     Obj       87
    c1486     r148      1
    c1487     Obj       88
    c1487     r148      1
    c1488     Obj       89
    c1488     r148      1
    c1489     Obj       90
    c1489     r148      1
    c1490     Obj       91
    c1490     r148      1
    c1490     r149      1
    c1491     Obj       92
    c1491     r148      1
    c1491     r149      1
    c1492     Obj       93
    c1492     r148      1
    c1492     r149      1
    c1493     Obj       94
    c1493     r148      1
    c1493     r149      1
    c1494     Obj       95
    c1494     r148      1
    c1494     r149      1
    c1495     Obj       96
    c1495     r149      1
    c1496     Obj       97
    c1496     r149      1
    c1497     Obj       98
    c1497     r149      1
    c1498     Obj       99
    c1498     r149      1
    c1499     Obj       100
    c1499     r149      1
    c1500     Obj       1
    c1500     r149      1
    c1500     r150      1
    c1501     Obj       2
    c1501     r149      1
    c1501     r150      1
    c1502     Obj       3
    c1502     r149      1
    c1502     r150      1
    c1503     Obj       4
    c1503     r149      1
    c1503     r150      1
    c1504     Obj       5
    c1504     r149      1
    c1504     r150      1
    c1505     Obj       6
    c1505     r150      1
    c1506     Obj       7
    c1506     r150      1
    c1507     Obj       8
    c1507     r150      1
    c1508     Obj       9
    c1508     r150      1
    c1509     Obj       10
    c1509     r150      1
    c1510     Obj       11
    c1510     r150      1
    c1510     r151      1
    c1511     Obj       12
    c1511     r150      1
    c1511     r151      1
    c1512     Obj       13
    c1512     r150      1
    c1512     r151      1
    c1513     Obj       14
    c1513     r150      1
    c1513     r151      1
    c1514     Obj       15
    c1514     r150      1
    c1514     r151      1
    c1515     Obj       16
    c1515     r151      1
    c1516     Obj       17
    c1516     r151      1
    c1517     Obj       18
    c1517     r151      1
    c1518     Obj       19
    c1518     r151      1
    c1519     Obj       20
    c1519     r151      1
    c1520     Obj       21
    c1520     r151      1
    c1520     r152      1
    c1521     Obj       22
    c1521     r151      1
    c1521     r152      1
    c1522     Obj       23
    c1522     r151      1
    c1522     r152      1
    c1523     Obj       24
    c1523     r151      1
    c1523     r152      1
    c1524     Obj       25
    c1524     r151      1
    c1524     r152      1
    c1525     Obj       26
    c1525     r152      1
    c1526     Obj       27
    c1526     r152      1
    c1527     Obj       28
    c1527     r152      1
    c1528     Obj       29
    c1528     r152      1
    c1529     Obj       30
    c1529     r152      1
    c1530     Obj       31
    c1530     r152      1
    c1530     r153      1
    c1531     Obj       32
    c1531     r152      1
    c1531     r153      1
    c1532     Obj       33
    c1532     r152      1
    c1532     r153      1
    c1533     Obj       34
    c1533     r152      1
    c1533     r153      1
    c1534     Obj       35
    c1534     r152      1
    c1534     r153      1
    c1535     Obj       36
    c1535     r153      1
    c1536     Obj       37
    c1536     r153      1
    c1537     Obj       38
    c1537     r153      1
    c1538     Obj       39
    c1538     r153      1
    c1539     Obj       40
    c1539     r153      1
    c1540     Obj       41
    c1540     r153      1
    c1540     r154      1
    c1541     Obj       42
    c1541     r153      1
    c1541     r154      1
    c1542     Obj       43
    c1542     r153      1
    c1542     r154      1
    c1543     Obj       44
    c1543     r153      1
    c1543     r154      1
    c1544     Obj       45
    c1544     r153      1
    c1544     r154      1
    c1545     Obj       46
    c1545     r154      1
    c1546     Obj       47
    c1546     r154      1
    c1547     Obj       48
    c1547     r154      1
    c1548     Obj       49
    c1548     r154      1
    c1549     Obj       50
    c1549     r154      1
    c1550     Obj       51
    c1550     r154      1
    c1550     r155      1
    c1551     Obj       52
    c1551     r154      1
    c1551     r155      1
    c1552     Obj       53
    c1552     r154      1
    c1552     r155      1
    c1553     Obj       54
    c1553     r154      1
    c1553     r155      1
    c1554     Obj       55
    c1554     r154      1
    c1554     r155      1
    c1555     Obj       56
    c1555     r155      1
    c1556     Obj       57
    c1556     r155      1
    c1557     Obj       58
    c1557     r155      1
    c1558     Obj       59
    c1558     r155      1
    c1559     Obj       60
    c1559     r155      1
    c1560     Obj       61
    c1560     r155      1
    c1560     r156      1
    c1561     Obj       62
    c1561     r155      1
    c1561     r156      1
    c1562     Obj       63
    c1562     r155      1
    c1562     r156      1
    c1563     Obj       64
    c1563     r155      1
    c1563     r156      1
    c1564     Obj       65
    c1564     r155      1
    c1564     r156      1
    c1565     Obj       66
    c1565     r156      1
    c1566     Obj       67
    c1566     r156      1
    c1567     Obj       68
    c1567     r156      1
    c1568     Obj       69
    c1568     r156      1
    c1569     Obj       70
    c1569     r156      1
    c1570     Obj       71
    c1570     r156      1
    c1570     r157      1
    c1571     Obj       72
    c1571     r156      1
    c1571     r157      1
    c1572     Obj       73
    c1572     r156      1
    c1572     r157      1
    c1573     Obj       74
    c1573     r156      1
    c1573     r157      1
    c1574     Obj       75
    c1574     r156      1
    c1574     r157      1
    c1575     Obj       76
    c1575     r157      1
    c1576     Obj       77
    c1576     r157      1
    c1577     Obj       78
    c1577     r157      1
    c1578     Obj       79
    c1578     r157      1
    c1579     Obj       80
    c1579     r157      1
    c1580     Obj       81
    c1580     r157      1
    c1580     r158      1
    c1581     Obj       82
    c1581     r157      1
    c1581     r158      1
    c1582     Obj       83
    c1582     r157      1
    c1582     r158      1
    c1583     Obj       84
    c1583     r157      1
    c1583     r158      1
    c1584     Obj       85
    c1584     r157      1
    c1584     r158      1
    c1585     Obj       86
    c1585     r158      1
    c1586     Obj       87
    c1586     r158      1
    c1587     Obj       88
    c1587     r158      1
    c1588     Obj       89
    c1588     r158      1
    c1589     Obj       90
    c1589     r158      1
    c1590     Obj       91
    c1590     r158      1
    c1590     r159      1
    c1591     Obj       92
    c1591     r158      1
    c1591     r159      1
    c1592     Obj       93
    c1592     r158      1
    c1592     r159      1
    c1593     Obj       94
    c1593     r158      1
    c1593     r159      1
    c1594     Obj       95
    c1594     r158      1
    c1594     r159      1
    c1595     Obj       96
    c1595     r159      1
    c1596     Obj       97
    c1596     r159      1
    c1597     Obj       98
    c1597     r159      1
    c1598     Obj       99
    c1598     r159      1
    c1599     Obj       100
    c1599     r159      1
    c1600     Obj       1
    c1600     r159      1
    c1600     r160      1
    c1601     Obj       2
    c1601     r159      1
    c1601     r160      1
    c1602     Obj       3
    c1602     r159      1
    c1602     r160      1
    c1603     Obj       4
    c1603     r159      1
    c1603     r160      1
    c1604     Obj       5
    c1604     r159      1
    c1604     r160      1
    c1605     Obj       6
    c1605     r160      1
    c1606     Obj       7
    c1606     r160      1
    c1607     Obj       8
    c1607     r160      1
    c1608     Obj       9
    c1608     r160      1
    c1609     Obj       10
    c1609     r160      1
    c1610     Obj       11
    c1610     r160      1
    c1610     r161      1
    c1611     Obj       12
    c1611     r160      1
    c1611     r161      1
    c1612     Obj       13
    c1612     r160      1
    c1612     r161      1
    c1613     Obj       14
    c1613     r160      1
    c1613     r161      1
    c1614     Obj       15
    c1614     r160      1
    c1614     r161      1
    c1615     Obj       16
    c1615     r161      1
    c1616     Obj       17
    c1616     r161      1
    c1617     Obj       18
    c1617     r161      1
    c1618     Obj       19
    c1618     r161      1
    c1619     Obj       20
    c1619     r161      1
    c1620     Obj       21
    c1620     r161      1
    c1620     r162      1
    c1621     Obj       22
    c1621     r161      1
    c1621     r162      1
    c1622     Obj       23
    c1622     r161      1
    c1622     r162      1
    c1623     Obj       24
    c1623     r161      1
    c1623     r162      1
    c1624     Obj       25
    c1624     r161      1
    c1624     r162      1
    c1625     Obj       26
    c1625     r162      1
    c1626     Obj       27
    c1626     r162      1
    c1627     Obj       28
    c1627     r162      1
    c1628     Obj       29
    c1628     r162      1
    c1629     Obj       30
    c1629     r162      1
    c1630     Obj       31
    c1630     r162      1
    c1630     r163      1
    c1631     Obj       32
    c1631     r162      1
    c1631     r163      1
    c1632     Obj       33
    c1632     r162      1
    c1632     r163      1
    c1633     Obj       34
    c1633     r162      1
    c1633     r163      1
    c1634     Obj       35
    c1634     r162      1
    c1634     r163      1
    c1635     Obj       36
    c1635     r163      1
    c1636     Obj       37
    c1636     r163      1
    c1637     Obj       38
    c1637     r163      1
    c1638     Obj       39
    c1638     r163      1
    c1639     Obj       40
    c1639     r163      1
    c1640     Obj       41
    c1640     r163      1
    c1640     r164      1
    c1641     Obj       42
    c1641     r163      1
    c1641     r164      1
    c1642     Obj       43
    c1642     r163      1
    c1642     r164      1
    c1643     Obj       44
    c1643     r163      1
    c1643     r164      1
    c1644     Obj       45
    c1644     r163      1
    c1644     r164      1
    c1645     Obj       46
    c1645     r164      1
    c1646     Obj       47
    c1646     r164      1
    c1647     Obj       48
    c1647     r164      1
    c1648     Obj       49
    c1648     r164      1
    c1649     Obj       50
    c1649     r164      1
    c1650     Obj       51
    c1650     r164      1
    c1650     r165      1
    c1651     Obj       52
    c1651     r164      1
    c1651     r165      1
    c1652     Obj       53
    c1652     r164      1
    c1652     r165      1
    c1653     Obj       54
    c1653     r164      1
    c1653     r165      1
    c1654     Obj       55
    c1654     r164      1
    c1654     r165      1
    c1655     Obj       56
    c1655     r165      1
    c1656     Obj       57
    c1656     r165      1
    c1657     Obj       58
    c1657     r165      1
    c1658     Obj       59
    c1658     r165      1
    c1659     Obj       60
    c1659     r165      1
    c1660     Obj       61
    c1660     r165      1
    c1660     r166      1
    c1661     Obj       62
    c1661     r165      1
    c1661     r166      1
    c1662     Obj       63
    c1662     r165      1
    c1662     r166      1
    c1663     Obj       64
    c1663     r165      1
    c1663     r166      1
    c1664     Obj       65
    c1664     r165      1
    c1664     r166      1
    c1665     Obj       66
    c1665     r166      1
    c1666     Obj       67
    c1666     r166      1
    c1667     Obj       68
    c1667     r166      1
    c1668     Obj       69
    c1668     r166      1
    c1669     Obj       70
    c1669     r166      1
    c1670     Obj       71
    c1670     r166      1
    c1670     r167      1
    c1671     Obj       72
    c1671     r166      1
    c1671     r167      1
    c1672     Obj       73
    c1672     r166      1
    c1672     r167      1
    c1673     Obj       74
    c1673     r166      1
    c1673     r167      1
    c1674     Obj       75
    c1674     r166      1
    c1674     r167      1
    c1675     Obj       76
    c1675     r167      1
    c1676     Obj       77
    c1676     r167      1
    c1677     Obj       78
    c1677     r167      1
    c1678     Obj       79
    c1678     r167      1
    c1679     Obj       80
    c1679     r167      1
    c1680     Obj       81
    c1680     r167      1
    c1680     r168      1
    c1681     Obj       82
    c1681     r167      1
    c1681     r168      1
    c1682     Obj       83
    c1682     r167      1
    c1682     r168      1
    c1683     Obj       84
    c1683     r167      1
    c1683     r168      1
    c1684     Obj       85
    c1684     r167      1
    c1684     r168      1
    c1685     Obj       86
    c1685     r168      1
    c1686     Obj       87
    c1686     r168      1
    c1687     Obj       88
    c1687     r168      1
    c1688     Obj       89
    c1688     r168      1
    c1689     Obj       90
    c1689     r168      1
    c1690     Obj       91
    c1690     r168      1
    c1690     r169      1
    c1691     Obj       92
    c1691     r168      1
    c1691     r169      1
    c1692     Obj       93
    c1692     r168      1
    c1692     r169      1
    c1693     Obj       94
    c1693     r168      1
    c1693     r169      1
    c1694     Obj       95
    c1694     r168      1
    c1694     r169      1
    c1695     Obj       96
    c1695     r169      1
    c1696     Obj       97
    c1696     r169      1
    c1697     Obj       98
    c1697     r169      1
    c1698     Obj       99
    c1698     r169      1
    c1699     Obj       100
    c1699     r169      1
    c1700     Obj       1
    c1700     r169      1
    c1700     r170      1
    c1701     Obj       2
    c1701     r169      1
    c1701     r170      1
    c1702     Obj       3
    c1702     r169      1
    c1702     r170      1
    c1703     Obj       4
    c1703     r169      1
    c1703     r170      1
    c1704     Obj       5
    c1704     r169      1
    c1704     r170      1
    c1705     Obj       6
    c1705     r170      1
    c1706     Obj       7
    c1706     r170      1
    c1707     Obj       8
    c1707     r170      1
    c1708     Obj       9
    c1708     r170      1
    c1709     Obj       10
    c1709     r170      1
    c1710     Obj       11
    c1710     r170      1
    c1710     r171      1
    c1711     Obj       12
    c1711     r170      1
    c1711     r171      1
    c1712     Obj       13
    c1712     r170      1
    c1712     r171      1
    c1713     Obj       14
    c1713     r170      1
    c1713     r171      1
    c1714     Obj       15
    c1714     r170      1
    c1714     r171      1
    c1715     Obj       16
    c1715     r171      1
    c1716     Obj       17
    c1716     r171      1
    c1717     Obj       18
    c1717     r171      1
    c1718     Obj       19
    c1718     r171      1
    c1719     Obj       20
    c1719     r171      1
    c1720     Obj       21
    c1720     r171      1
    c1720     r172      1
    c1721     Obj       22
    c1721     r171      1
    c1721     r172      1
    c1722     Obj       23
    c1722     r171      1
    c1722     r172      1
    c1723     Obj       24
    c1723     r171      1
    c1723     r172      1
    c1724     Obj       25
    c1724     r171      1
    c1724     r172      1
    c1725     Obj       26
    c1725     r172      1
    c1726     Obj       27
    c1726     r172      1
    c1727     Obj       28
    c1727     r172      1
    c1728     Obj       29
    c1728     r172      1
    c1729     Obj       30
    c1729     r172      1
    c1730     Obj       31
    c1730     r172      1
    c1730     r173      1
    c1731     Obj       32
    c1731     r172      1
    c1731     r173      1
    c1732     Obj       33
    c1732     r172      1
    c1732     r173      1
    c1733     Obj       34
    c1733     r172      1
    c1733     r173      1
    c1734     Obj       35
    c1734     r172      1
    c1734     r173      1
    c1735     Obj       36
    c1735     r173      1
    c1736     Obj       37
    c1736     r173      1
    c1737     Obj       38
    c1737     r173      1
    c1738     Obj       39
    c1738     r173      1
    c1739     Obj       40
    c1739     r173      1
    c1740     Obj       41
    c1740     r173      1
    c1740     r174      1
    c1741     Obj       42
    c1741     r173      1
    c1741     r174      1
    c1742     Obj       43
    c1742     r173      1
    c1742     r174      1
    c1743     Obj       44
    c1743     r173      1
    c1743     r174      1
    c1744     Obj       45
    c1744     r173      1
    c1744     r174      1
    c1745     Obj       46
    c1745     r174      1
    c1746     Obj       47
    c1746     r174      1
    c1747     Obj       48
    c1747     r174      1
    c1748     Obj       49
    c1748     r174      1
    c1749     Obj       50
    c1749     r174      1
    c1750     Obj       51
    c1750     r174      1
    c1750     r175      1
    c1751     Obj       52
    c1751     r174      1
    c1751     r175      1
    c1752     Obj       53
    c1752     r174      1
    c1752     r175      1
    c1753     Obj       54
    c1753     r174      1
    c1753     r175      1
    c1754     Obj       55
    c1754     r174      1
    c1754     r175      1
    c1755     Obj       56
    c1755     r175      1
    c1756     Obj       57
    c1756     r175      1
    c1757     Obj       58
    c1757     r175      1
    c1758     Obj       59
    c1758     r175      1
    c1759     Obj       60
    c1759     r175      1
    c1760     Obj       61
    c1760     r175      1
    c1760     r176      1
    c1761     Obj       62
    c1761     r175      1
    c1761     r176      1
    c1762     Obj       63
    c1762     r175      1
    c1762     r176      1
    c1763     Obj       64
    c1763     r175      1
    c1763     r176      1
    c1764     Obj       65
    c1764     r175      1
    c1764     r176      1
    c1765     Obj       66
    c1765     r176      1
    c1766     Obj       67
    c1766     r176      1
    c1767     Obj       68
    c1767     r176      1
    c1768     Obj       69
    c1768     r176      1
    c1769     Obj       70
    c1769     r176      1
    c1770     Obj       71
    c1770     r176      1
    c1770     r177      1
    c1771     Obj       72
    c1771     r176      1
    c1771     r177      1
    c1772     Obj       73
    c1772     r176      1
    c1772     r177      1
    c1773     Obj       74
    c1773     r176      1
    c1773     r177      1
    c1774     Obj       75
    c1774     r176      1
    c1774     r177      1
    c1775     Obj       76
    c1775     r177      1
    c1776     Obj       77
    c1776     r177      1
    c1777     Obj       78
    c1777     r177      1
    c1778     Obj       79
    c1778     r177      1
    c1779     Obj       80
    c1779     r177      1
    c1780     Obj       81
    c1780     r177      1
    c1780     r178      1
    c1781     Obj       82
    c1781     r177      1
    c1781     r178      1
    c1782     Obj       83
    c1782     r177      1
    c1782     r178      1
    c1783     Obj       84
    c1783     r177      1
    c1783     r178      1
    c1784     Obj       85
    c1784     r177      1
    c1784     r178      1
    c1785     Obj       86
    c1785     r178      1
    c1786     Obj       87
    c1786     r178      1
    c1787     Obj       88
    c1787     r178      1
    c1788     Obj       89
    c1788     r178      1
    c1789     Obj       90
    c1789     r178      1
    c1790     Obj       91
    c1790     r178      1
    c1790     r179      1
    c1791     Obj       92
    c1791     r178      1
    c1791     r179      1
    c1792     Obj       93
    c1792     r178      1
    c1792     r179      1
    c1793     Obj       94
    c1793     r178      1
    c1793     r179      1
    c1794     Obj       95
    c1794     r178      1
    c1794     r179      1
    c1795     Obj       96
    c1795     r179      1
    c1796     Obj       97
    c1796     r179      1
    c1797     Obj       98
    c1797     r179      1
    c1798     Obj       99
    c1798     r179      1
    c1799     Obj       100
    c1799     r179      1
    c1800     Obj       1
    c1800     r179      1
    c1800     r180      1
    c1801     Obj       2
    c1801     r179      1
    c1801     r180      1
    c1802     Obj       3
    c1802     r179      1
    c1802     r180      1
    c1803     Obj       4
    c1803     r179      1
    c1803     r180      1
    c1804     Obj       5
    c1804     r179      1
    c1804     r180      1
    c1805     Obj       6
    c1805     r180      1
    c1806     Obj       7
    c1806     r180      1
    c1807     Obj       8
    c1807     r180      1
    c1808     Obj       9
    c1808     r180      1
    c1809     Obj       10
    c1809     r180      1
    c1810     Obj       11
    c1810     r180      1
    c1810     r181      1
    c1811     Obj       12
    c1811     r180      1
    c1811     r181      1
    c1812     Obj       13
    c1812     r180      1
    c1812     r181      1
    c1813     Obj       14
    c1813     r180      1
    c1813     r181      1
    c1814     Obj       15
    c1814     r180      1
    c1814     r181      1
    c1815     Obj       16
    c1815     r181      1
    c1816     Obj       17
    c1816     r181      1
    c1817     Obj       18
    c1817     r181      1
    c1818     Obj       19
    c1818     r181      1
    c1819     Obj       20
    c1819     r181      1
    c1820     Obj       21
    c1820     r181      1
    c1820     r182      1
    c1821     Obj       22
    c1821     r181      1
    c1821     r182      1
    c1822     Obj       23
    c1822     r181      1
    c1822     r182      1
    c1823     Obj       24
    c1823     r181      1
    c1823     r182      1
    c1824     Obj       25
    c1824     r181      1
    c1824     r182      1
    c1825     Obj       26
    c1825     r182      1
    c1826     Obj       27
    c1826     r182      1
    c1827     Obj       28
    c1827     r182      1
    c1828     Obj       29
    c1828     r182      1
    c1829     Obj       30
    c1829     r182      1
    c1830     Obj       31
    c1830     r182      1
    c1830     r183      1
    c1831     Obj       32
    c1831     r182      1
    c1831     r183      1
    c1832     Obj       33
    c1832     r182      1
    c1832     r183      1
    c1833     Obj       34
    c1833     r182      1
    c1833     r183      1
    c1834     Obj       35
    c1834     r182      1
    c1834     r183      1
    c1835     Obj       36
    c1835     r183      1
    c1836     Obj       37
    c1836     r183      1
    c1837     Obj       38
    c1837     r183      1
    c1838     Obj       39
    c1838     r183      1
    c1839     Obj       40
    c1839     r183      1
    c1840     Obj       41
    c1840     r183      1
    c1840     r184      1
    c1841     Obj       42
    c1841     r183      1
    c1841     r184      1
    c1842     Obj       43
    c1842     r183      1
    c1842     r184      1
    c1843     Obj       44
    c1843     r183      1
    c1843     r184      1
    c1844     Obj       45
    c1844     r183      1
    c1844     r184      1
    c1845     Obj       46
    c1845     r184      1
    c1846     Obj       47
    c1846     r184      1
    c1847     Obj       48
    c1847     r184      1
    c1848     Obj       49
    c1848     r184      1
    c1849     Obj       50
    c1849     r184      1
    c1850     Obj       51
    c1850     r184      1
    c1850     r185      1
    c1851     Obj       52
    c1851     r184      1
    c1851     r185      1
    c1852     Obj       53
    c1852     r184      1
    c1852     r185      1
    c1853     Obj       54
    c1853     r184      1
    c1853     r185      1
    c1854     Obj       55
    c1854     r184      1
    c1854     r185      1
    c1855     Obj       56
    c1855     r185      1
    c1856     Obj       57
    c1856     r185      1
    c1857     Obj       58
    c1857     r185      1
    c1858     Obj       59
    c1858     r185      1
    c1859     Obj       60
    c1859     r185      1
    c1860     Obj       61
    c1860     r185      1
    c1860     r186      1
    c1861     Obj       62
    c1861     r185      1
    c1861     r186      1
    c1862     Obj       63
    c1862     r185      1
    c1862     r186      1
    c1863     Obj       64
    c1863     r185      1
    c1863     r186      1
    c1864     Obj       65
    c1864     r185      1
    c1864     r186      1
    c1865     Obj       66
    c1865     r186      1
    c1866     Obj       67
    c1866     r186      1
    c1867     Obj       68
    c1867     r186      1
    c1868     Obj       69
    c1868     r186      1
    c1869     Obj       70
    c1869     r186      1
    c1870     Obj       71
    c1870     r186      1
    c1870     r187      1
    c1871     Obj       72
    c1871     r186      1
    c1871     r187      1
    c1872     Obj       73
    c1872     r186      1
    c1872     r187      1
    c1873     Obj       74
    c1873     r186      1
    c1873     r187      1
    c1874     Obj       75
    c1874     r186      1
    c1874     r187      1
    c1875     Obj       76
    c1875     r187      1
    c1876     Obj       77
    c1876     r187      1
    c1877     Obj       78
    c1877     r187      1
    c1878     Obj       79
    c1878     r187      1
    c1879     Obj       80
    c1879     r187      1
    c1880     Obj       81
    c1880     r187      1
    c1880     r188      1
    c1881     Obj       82
    c1881     r187      1
    c1881     r188      1
    c1882     Obj       83
    c1882     r187      1
    c1882     r188      1
    c1883     Obj       84
    c1883     r187      1
    c1883     r188      1
    c1884     Obj       85
    c1884     r187      1
    c1884     r188      1
    c1885     Obj       86
    c1885     r188      1
    c1886     Obj       87
    c1886     r188      1
    c1887     Obj       88
    c1887     r188      1
    c1888     Obj       89
    c1888     r188      1
    c1889     Obj       90
    c1889     r188      1
    c1890     Obj       91
    c1890     r188      1
    c1890     r189      1
    c1891     Obj       92
    c1891     r188      1
    c1891     r189      1
    c1892     Obj       93
    c1892     r188      1
    c1892     r189      1
    c1893     Obj       94
    c1893     r188      1
    c1893     r189      1
    c1894     Obj       95
    c1894     r188      1
    c1894     r189      1
    c1895     Obj       96
    c1895     r189      1
    c1896     Obj       97
    c1896     r189      1
    c1897     Obj       98
    c1897     r189      1
    c1898     Obj       99
    c1898     r189      1
    c1899     Obj       100
    c1899     r189      1
    c1900     Obj       1
    c1900     r189      1
    c1900     r190      1
    c1901     Obj       2
    c1901     r189      1
    c1901     r190      1
    c1902     Obj       3
    c1902     r189      1
    c1902     r190      1
    c1903     Obj       4
    c1903     r189      1
    c1903     r190      1
    c1904     Obj       5
    c1904     r189      1
    c1904     r190      1
    c1905     Obj       6
    c1905     r190      1
    c1906     Obj       7
    c1906     r190      1
    c1907     Obj       8
    c1907     r190      1
    c1908     Obj       9
    c1908     r190      1
    c1909     Obj       10
    c1909     r190      1
    c1910     Obj       11
    c1910     r190      1
    c1910     r191      1
    c1911     Obj       12
    c1911     r190      1
    c1911     r191      1
    c1912     Obj       13
    c1912     r190      1
    c1912     r191      1
    c1913     Obj       14
    c1913     r190      1
    c1913     r191      1
    c1914     Obj       15
    c1914     r190      1
    c1914     r191      1
    c1915     Obj       16
    c1915     r191      1
    c1916     Obj       17
    c1916     r191      1
    c1917     Obj       18
    c1917     r191      1
    c1918     Obj       19
    c1918     r191      1
    c1919     Obj       20
    c1919     r191      1
    c1920     Obj       21
    c1920     r191      1
    c1920     r192      1
    c1921     Obj       22
    c1921     r191      1
    c1921     r192      1
    c1922     Obj       23
    c1922     r191      1
    c1922     r192      1
    c1923     Obj       24
    c1923     r191      1
    c1923     r192      1
    c1924     Obj       25
    c1924     r191      1
    c1924     r192      1
    c1925     Obj       26
    c1925     r192      1
    c1926     Obj       27
    c1926     r192      1
    c1927     Obj       28
    c1927     r192      1
    c1928     Obj       29
    c1928     r192      1
    c1929     Obj       30
    c1929     r192      1
    c1930     Obj       31
    c1930     r192      1
    c1930     r193      1
    c1931     Obj       32
    c1931     r192      1
    c1931     r193      1
    c1932     Obj       33
    c1932     r192      1
    c1932     r193      1
    c1933     Obj       34
    c1933     r192      1
    c1933     r193      1
    c1934     Obj       35
    c1934     r192      1
    c1934     r193      1
    c1935     Obj       36
    c1935     r193      1
    c1936     Obj       37
    c1936     r193      1
    c1937     Obj       38
    c1937     r193      1
    c1938     Obj       39
    c1938     r193      1
    c1939     Obj       40
    c1939     r193      1
    c1940     Obj       41
    c1940     r193      1
    c1940     r194      1
    c1941     Obj       42
    c1941     r193      1
    c1941     r194      1
    c1942     Obj       43
    c1942     r193      1
    c1942     r194      1
    c1943     Obj       44
    c1943     r193      1
    c1943     r194      1
    c1944     Obj       45
    c1944     r193      1
    c1944     r194      1
    c1945     Obj       46
    c1945     r194      1
    c1946     Obj       47
    c1946     r194      1
    c1947     Obj       48
    c1947     r194      1
    c1948     Obj       49
    c1948     r194      1
    c1949     Obj       50
    c1949     r194      1
    c1950     Obj       51
    c1950     r194      1
    c1950     r195      1
    c1951     Obj       52
    c1951     r194      1
    c1951     r195      1
    c1952     Obj       53
    c1952     r194      1
    c1952     r195      1
    c1953     Obj       54
    c1953     r194      1
    c1953     r195      1
    c1954     Obj       55
    c1954     r194      1
    c1954     r195      1
    c1955     Obj       56
    c1955     r195      1
    c1956     Obj       57
    c1956     r195      1
    c1957     Obj       58
    c1957     r195      1
    c1958     Obj       59
    c1958     r195      1
    c1959     Obj       60
    c1959     r195      1
    c1960     Obj       61
    c1960     r195      1
    c1960     r196      1
    c1961     Obj       62
    c1961     r195      1
    c1961     r196      1
    c1962     Obj       63
    c1962     r195      1
    c1962     r196      1
    c1963     Obj       64
    c1963     r195      1
    c1963     r196      1
    c1964     Obj       65
    c1964     r195      1
    c1964     r196      1
    c1965     Obj       66
    c1965     r196      1
    c1966     Obj       67
    c1966     r196      1
    c1967     Obj       68
    c1967     r196      1
    c1968     Obj       69
    c1968     r196      1
    c1969     Obj       70
    c1969     r196      1
    c1970     Obj       71
    c1970     r196      1
    c1970     r197      1
    c1971     Obj       72
    c1971     r196      1
    c1971     r197      1
    c1972     Obj       73
    c1972     r196      1
    c1972     r197      1
    c1973     Obj       74
    c1973     r196      1
    c1973     r197      1
    c1974     Obj       75
    c1974     r196      1
    c1974     r197      1
    c1975     Obj       76
    c1975     r197      1
    c1976     Obj       77
    c1976     r197      1
    c1977     Obj       78
    c1977     r197      1
    c1978     Obj       79
    c1978     r197      1
    c1979     Obj       80
    c1979     r197      1
    c1980     Obj       81
    c1980     r197      1
    c1980     r198      1
    c1981     Obj       82
    c1981     r197      1
    c1981     r198      1
    c1982     Obj       83
    c1982     r197      1
    c1982     r198      1
    c1983     Obj       84
    c1983     r197      1
    c1983     r198      1
    c1984     Obj       85
    c1984     r197      1
    c1984     r198      1
    c1985     Obj       86
    c1985     r198      1
    c1986     Obj       87
    c1986     r198      1
    c1987     Obj       88
    c1987     r198      1
    c1988     Obj       89
    c1988     r198      1
    c1989     Obj       90
    c1989     r198      1
    c1990     Obj       91
    c1990     r198      1
    c1990     r199      1
    c1991     Obj       92
    c1991     r198      1
    c1991     r199      1
    c1992     Obj       93
    c1992     r198      1
    c1992     r199      1
    c1993     Obj       94
    c1993     r198      1
    c1993     r199      1
    c1994     Obj       95
    c1994     r198      1
    c1994     r199      1
    c1995     Obj       96
    c1995     r199      1
    c1996     Obj       97
    c1996     r199      1
    c1997     Obj       98
    c1997     r199      1
    c1998     Obj       99
    c1998     r199      1
    c1999     Obj       100
    c1999     r199      1
    c2000     Obj       1
    c2000     r199      1
    c2000     r200      1
    c2001     Obj       2
    c2001     r199      1
    c2001     r200      1
    c2002     Obj       3
    c2002     r199      1
    c2002     r200      1
    c2003     Obj       4
    c2003     r199      1
    c2003     r200      1
    c2004     Obj       5
    c2004     r199      1
    c2004     r200      1
    c2005     Obj       6
    c2005     r200      1
    c2006     Obj       7
    c2006     r200      1
    c2007     Obj       8
    c2007     r200      1
    c2008     Obj       9
    c2008     r200      1
    c2009     Obj       10
    c2009     r200      1
    c2010     Obj       11
    c2010     r200      1
    c2010     r201      1
    c2011     Obj       12
    c2011     r200      1
    c2011     r201      1
    c2012     Obj       13
    c2012     r200      1
    c2012     r201      1
    c2013     Obj       14
    c2013     r200      1
    c2013     r201      1
    c2014     Obj       15
    c2014     r200      1
    c2014     r201      1
    c2015     Obj       16
    c2015     r201      1
    c2016     Obj       17
    c2016     r201      1
    c2017     Obj       18
    c2017     r201      1
    c2018     Obj       19
    c2018     r201      1
    c2019     Obj       20
    c2019     r201      1
    c2020     Obj       21
    c2020     r201      1
    c2020     r202      1
    c2021     Obj       22
    c2021     r201      1
    c2021     r202      1
    c2022     Obj       23
    c2022     r201      1
    c2022     r202      1
    c2023     Obj       24
    c2023     r201      1
    c2023     r202      1
    c2024     Obj       25
    c2024     r201      1
    c2024     r202      1
    c2025     Obj       26
    c2025     r202      1
    c2026     Obj       27
    c2026     r202      1
    c2027     Obj       28
    c2027     r202      1
    c2028     Obj       29
    c2028     r202      1
    c2029     Obj       30
    c2029     r202      1
    c2030     Obj       31
    c2030     r202      1
    c2030     r203      1
    c2031     Obj       32
    c2031     r202      1
    c2031     r203      1
    c2032     Obj       33
    c2032     r202      1
    c2032     r203      1
    c2033     Obj       34
    c2033     r202      1
    c2033     r203      1
    c2034     Obj       35
    c2034     r202      1
    c2034     r203      1
    c2035     Obj       36
    c2035     r203      1
    c2036     Obj       37
    c2036     r203      1
    c2037     Obj       38
    c2037     r203      1
    c2038     Obj       39
    c2038     r203      1
    c2039     Obj       40
    c2039     r203      1
    c2040     Obj       41
    c2040     r203      1
    c2040     r204      1
    c2041     Obj       42
    c2041     r203      1
    c2041     r204      1
    c2042     Obj       43
    c2042     r203      1
    c2042     r204      1
    c2043     Obj       44
    c2043     r203      1
    c2043     r204      1
    c2044     Obj       45
    c2044     r203      1
    c2044     r204      1
    c2045     Obj       46
    c2045     r204      1
    c2046     Obj       47
    c2046     r204      1
    c2047     Obj       48
    c2047     r204      1
    c2048     Obj       49
    c2048     r204      1
    c2049     Obj       50
    c2049     r204      1
    c2050     Obj       51
    c2050     r204      1
    c2050     r205      1
    c2051     Obj       52
    c2051     r204      1
    c2051     r205      1
    c2052     Obj       53
    c2052     r204      1
    c2052     r205      1
    c2053     Obj       54
    c2053     r204      1
    c2053     r205      1
    c2054     Obj       55
    c2054     r204      1
    c2054     r205      1
    c2055     Obj       56
    c2055     r205      1
    c2056     Obj       57
    c2056     r205      1
    c2057     Obj       58
    c2057     r205      1
    c2058     Obj       59
    c2058     r205      1
    c2059     Obj       60
    c2059     r205      1
    c2060     Obj       61
    c2060     r205      1
    c2060     r206      1
    c2061     Obj       62
    c2061     r205      1
    c2061     r206      1
    c2062     Obj       63
    c2062     r205      1
    c2062     r206      1
    c2063     Obj       64
    c2063     r205      1
    c2063     r206      1
    c2064     Obj       65
    c2064     r205      1
    c2064     r206      1
    c2065     Obj       66
    c2065     r206      1
    c2066     Obj       67
    c2066     r206      1
    c2067     Obj       68
    c2067     r206      1
    c2068     Obj       69
    c2068     r206      1
    c2069     Obj       70
    c2069     r206      1
    c2070     Obj       71
    c2070     r206      1
    c2070     r207      1
    c2071     Obj       72
    c2071     r206      1
    c2071     r207      1
    c2072     Obj       73
    c2072     r206      1
    c2072     r207      1
    c2073     Obj       74
    c2073     r206      1
    c2073     r207      1
    c2074     Obj       75
    c2074     r206      1
    c2074     r207      1
    c2075     Obj       76
    c2075     r207      1
    c2076     Obj       77
    c2076     r207      1
    c2077     Obj       78
    c2077     r207      1
    c2078     Obj       79
    c2078     r207      1
    c2079     Obj       80
    c2079     r207      1
    c2080     Obj       81
    c2080     r207      1
    c2080     r208      1
    c2081     Obj       82
    c2081     r207      1
    c2081     r208      1
    c2082     Obj       83
    c2082     r207      1
    c2082     r208      1
    c2083     Obj       84
    c2083     r207      1
    c2083     r208      1
    c2084     Obj       85
    c2084     r207      1
    c2084     r208      1
    c2085     Obj       86
    c2085     r208      1
    c2086     Obj       87
    c2086     r208      1
    c2087     Obj       88
    c2087     r208      1
    c2088     Obj       89
    c2088     r208      1
    c2089     Obj       90
    c2089     r208      1
    c2090     Obj       91
    c2090     r208      1
    c2090     r209      1
    c2091     Obj       92
    c2091     r208      1
    c2091     r209      1
    c2092     Obj       93
    c2092     r208      1
    c2092     r209      1
    c2093     Obj       94
    c2093     r208      1
    c2093     r209      1
    c2094     Obj       95
    c2094     r208      1
    c2094     r209      1
    c2095     Obj       96
    c2095     r209      1
    c2096     Obj       97
    c2096     r209      1
    c2097     Obj       98
    c2097     r209      1
    c2098     Obj       99
    c2098     r209      1
    c2099     Obj       100
    c2099     r209      1
    c2100     Obj       1
    c2100     r209      1
    c2100     r210      1
    c2101     Obj       2
    c2101     r209      1
    c2101     r210      1
    c2102     Obj       3
    c2102     r209      1
    c2102     r210      1
    c2103     Obj       4
    c2103     r209      1
    c2103     r210      1
    c2104     Obj       5
    c2104     r209      1
    c2104     r210      1
    c2105     Obj       6
    c2105     r210      1
    c2106     Obj       7
    c2106     r210      1
    c2107     Obj       8
    c2107     r210      1
    c2108     Obj       9
    c2108     r210      1
    c2109     Obj       10
    c2109     r210      1
    c2110     Obj       11
    c2110     r210      1
    c2110     r211      1
    c2111     Obj       12
    c2111     r210      1
    c2111     r211      1
    c2112     Obj       13
    c2112     r210      1
    c2112     r211      1
    c2113     Obj       14
    c2113     r210      1
    c2113     r211      1
    c2114     Obj       15
    c2114     r210      1
    c2114     r211      1
    c2115     Obj       16
    c2115     r211      1
    c2116     Obj       17
    c2116     r211      1
    c2117     Obj       18
    c2117     r211      1
    c2118     Obj       19
    c2118     r211      1
    c2119     Obj       20
    c2119     r211      1
    c2120     Obj       21
    c2120     r211      1
    c2120     r212      1
    c2121     Obj       22
    c2121     r211      1
    c2121     r212      1
    c2122     Obj       23
    c2122     r211      1
    c2122     r212      1
    c2123     Obj       24
    c2123     r211      1
    c2123     r212      1
    c2124     Obj       25
    c2124     r211      1
    c2124     r212      1
    c2125     Obj       26
    c2125     r212      1
    c2126     Obj       27
    c2126     r212      1
    c2127     Obj       28
    c2127     r212      1
    c2128     Obj       29
    c2128     r212      1
    c2129     Obj       30
    c2129     r212      1
    c2130     Obj       31
    c2130     r212      1
    c2130     r213      1
    c2131     Obj       32
    c2131     r212      1
    c2131     r213      1
    c2132     Obj       33
    c2132     r212      1
    c2132     r213      1
    c2133     Obj       34
    c2133     r212      1
    c2133     r213      1
    c2134     Obj       35
    c2134     r212      1
    c2134     r213      1
    c2135     Obj       36
    c2135     r213      1
    c2136     Obj       37
    c2136     r213      1
    c2137     Obj       38
    c2137     r213      1
    c2138     Obj       39
    c2138     r213      1
    c2139     Obj       40
    c2139     r213      1
    c2140     Obj       41
    c2140     r213      1
    c2140     r214      1
    c2141     Obj       42
    c2141     r213      1
    c2141     r214      1
    c2142     Obj       43
    c2142     r213      1
    c2142     r214      1
    c2143     Obj       44
    c2143     r213      1
    c2143     r214      1
    c2144     Obj       45
    c2144     r213      1
    c2144     r214      1
    c2145     Obj       46
    c2145     r214      1
    c2146     Obj       47
    c2146     r214      1
    c2147     Obj       48
    c2147     r214      1
    c2148     Obj       49
    c2148     r214      1
    c2149     Obj       50
    c2149     r214      1
    c2150     Obj       51
    c2150     r214      1
    c2150     r215      1
    c2151     Obj       52
    c2151     r214      1
    c2151     r215      1
    c2152     Obj       53
    c2152     r214      1
    c2152     r215      1
    c2153     Obj       54
    c2153     r214      1
    c2153     r215      1
    c2154     Obj       55
    c2154     r214      1
    c2154     r215      1
    c2155     Obj       56
    c2155     r215      1
    c2156     Obj       57
    c2156     r215      1
    c2157     Obj       58
    c2157     r215      1
    c2158     Obj       59
    c2158     r215      1
    c2159     Obj       60
    c2159     r215      1
    c2160     Obj       61
    c2160     r215      1
    c2160     r216      1
    c2161     Obj       62
    c2161     r215      1
    c2161     r216      1
    c2162     Obj       63
    c2162     r215      1
    c2162     r216      1
    c2163     Obj       64
    c2163     r215      1
    c2163     r216      1
    c2164     Obj       65
    c2164     r215      1
    c2164     r216      1
    c2165     Obj       66
    c2165     r216      1
    c2166     Obj       67
    c2166     r216      1
    c2167     Obj       68
    c2167     r216      1
    c2168     Obj       69
    c2168     r216      1
    c2169     Obj       70
    c2169     r216      1
    c2170     Obj       71
    c2170     r216      1
    c2170     r217      1
    c2171     Obj       72
    c2171     r216      1
    c2171     r217      1
    c2172     Obj       73
    c2172     r216      1
    c2172     r217      1
    c2173     Obj       74
    c2173     r216      1
    c2173     r217      1
    c2174     Obj       75
    c2174     r216      1
    c2174     r217      1
    c2175     Obj       76
    c2175     r217      1
    c2176     Obj       77
    c2176     r217      1
    c2177     Obj       78
    c2177     r217      1
    c2178     Obj       79
    c2178     r217      1
    c2179     Obj       80
    c2179     r217      1
    c2180     Obj       81
    c2180     r217      1
    c2180     r218      1
    c2181     Obj       82
    c2181     r217      1
    c2181     r218      1
    c2182     Obj       83
    c2182     r217      1
    c2182     r218      1
    c2183     Obj       84
    c2183     r217      1
    c2183     r218      1
    c2184     Obj       85
    c2184     r217      1
    c2184     r218      1
    c2185     Obj       86
    c2185     r218      1
    c2186     Obj       87
    c2186     r218      1
    c2187     Obj       88
    c2187     r218      1
    c2188     Obj       89
    c2188     r218      1
    c2189     Obj       90
    c2189     r218      1
    c2190     Obj       91
    c2190     r218      1
    c2190     r219      1
    c2191     Obj       92
    c2191     r218      1
    c2191     r219      1
    c2192     Obj       93
    c2192     r218      1
    c2192     r219      1
    c2193     Obj       94
    c2193     r218      1
    c2193     r219      1
    c2194     Obj       95
    c2194     r218      1
    c2194     r219      1
    c2195     Obj       96
    c2195     r219      1
    c2196     Obj       97
    c2196     r219      1
    c2197     Obj       98
    c2197     r219      1
    c2198     Obj       99
    c2198     r219      1
    c2199     Obj       100
    c2199     r219      1
    c2200     Obj       1
    c2200     r219      1
    c2200     r220      1
    c2201     Obj       2
    c2201     r219      1
    c2201     r220      1
    c2202     Obj       3
    c2202     r219      1
    c2202     r220      1
    c2203     Obj       4
    c2203     r219      1
    c2203     r220      1
    c2204     Obj       5
    c2204     r219      1
    c2204     r220      1
    c2205     Obj       6
    c2205     r220      1
    c2206     Obj       7
    c2206     r220      1
    c2207     Obj       8
    c2207     r220      1
    c2208     Obj       9
    c2208     r220      1
    c2209     Obj       10
    c2209     r220      1
    c2210     Obj       11
    c2210     r220      1
    c2210     r221      1
    c2211     Obj       12
    c2211     r220      1
    c2211     r221      1
    c2212     Obj       13
    c2212     r220      1
    c2212     r221      1
    c2213     Obj       14
    c2213     r220      1
    c2213     r221      1
    c2214     Obj       15
    c2214     r220      1
    c2214     r221      1
    c2215     Obj       16
    c2215     r221      1
    c2216     Obj       17
    c2216     r221      1
    c2217     Obj       18
    c2217     r221      1
    c2218     Obj       19
    c2218     r221      1
    c2219     Obj       20
    c2219     r221      1
    c2220     Obj       21
    c2220     r221      1
    c2220     r222      1
    c2221     Obj       22
    c2221     r221      1
    c2221     r222      1
    c2222     Obj       23
    c2222     r221      1
    c2222     r222      1
    c2223     Obj       24
    c2223     r221      1
    c2223     r222      1
    c2224     Obj       25
    c2224     r221      1
    c2224     r222      1
    c2225     Obj       26
    c2225     r222      1
    c2226     Obj       27
    c2226     r222      1
    c2227     Obj       28
    c2227     r222      1
    c2228     Obj       29
    c2228     r222      1
    c2229     Obj       30
    c2229     r222      1
    c2230     Obj       31
    c2230     r222      1
    c2230     r223      1
    c2231     Obj       32
    c2231     r222      1
    c2231     r223      1
    c2232     Obj       33
    c2232     r222      1
    c2232     r223      1
    c2233     Obj       34
    c2233     r222      1
    c2233     r223      1
    c2234     Obj       35
    c2234     r222      1
    c2234     r223      1
    c2235     Obj       36
    c2235     r223      1
    c2236     Obj       37
    c2236     r223      1
    c2237     Obj       38
    c2237     r223      1
    c2238     Obj       39
    c2238     r223      1
    c2239     Obj       40
    c2239     r223      1
    c2240     Obj       41
    c2240     r223      1
    c2240     r224      1
    c2241     Obj       42
    c2241     r223      1
    c2241     r224      1
    c2242     Obj       43
    c2242     r223      1
    c2242     r224      1
    c2243     Obj       44
    c2243     r223      1
    c2243     r224      1
    c2244     Obj       45
    c2244     r223      1
    c2244     r224      1
    c2245     Obj       46
    c2245     r224      1
    c2246     Obj       47
    c2246     r224      1
    c2247     Obj       48
    c2247     r224      1
    c2248     Obj       49
    c2248     r224      1
    c2249     Obj       50
    c2249     r224      1
    c2250     Obj       51
    c2250     r224      1
    c2250     r225      1
    c2251     Obj       52
    c2251     r224      1
    c2251     r225      1
    c2252     Obj       53
    c2252     r224      1
    c2252     r225      1
    c2253     Obj       54
    c2253     r224      1
    c2253     r225      1
    c2254     Obj       55
    c2254     r224      1
    c2254     r225      1
    c2255     Obj       56
    c2255     r225      1
    c2256     Obj       57
    c2256     r225      1
    c2257     Obj       58
    c2257     r225      1
    c2258     Obj       59
    c2258     r225      1
    c2259     Obj       60
    c2259     r225      1
    c2260     Obj       61
    c2260     r225      1
    c2260     r226      1
    c2261     Obj       62
    c2261     r225      1
    c2261     r226      1
    c2262     Obj       63
    c2262     r225      1
    c2262     r226      1
    c2263     Obj       64
    c2263     r225      1
    c2263     r226      1
    c2264     Obj       65
    c2264     r225      1
    c2264     r226      1
    c2265     Obj       66
    c2265     r226      1
    c2266     Obj       67
    c2266     r226      1
    c2267     Obj       68
    c2267     r226      1
    c2268     Obj       69
    c2268     r226      1
    c2269     Obj       70
    c2269     r226      1
    c2270     Obj       71
    c2270     r226      1
    c2270     r227      1
    c2271     Obj       72
    c2271     r226      1
    c2271     r227      1
    c2272     Obj       73
    c2272     r226      1
    c2272     r227      1
    c2273     Obj       74
    c2273     r226      1
    c2273     r227      1
    c2274     Obj       75
    c2274     r226      1
    c2274     r227      1
    c2275     Obj       76
    c2275     r227      1
    c2276     Obj       77
    c2276     r227      1
    c2277     Obj       78
    c2277     r227      1
    c2278     Obj       79
    c2278     r227      1
    c2279     Obj       80
    c2279     r227      1
    c2280     Obj       81
    c2280     r227      1
    c2280     r228      1
    c2281     Obj       82
    c2281     r227      1
    c2281     r228      1
    c2282     Obj       83
    c2282     r227      1
    c2282     r228      1
    c2283     Obj       84
    c2283     r227      1
    c2283     r228      1
    c2284     Obj       85
    c2284     r227      1
    c2284     r228      1
    c2285     Obj       86
    c2285     r228      1
    c2286     Obj       87
    c2286     r228      1
    c2287     Obj       88
    c2287     r228      1
    c2288     Obj       89
    c2288     r228      1
    c2289     Obj       90
    c2289     r228      1
    c2290     Obj       91
    c2290     r228      1
    c2290     r229      1
    c2291     Obj       92
    c2291     r228      1
    c2291     r229      1
    c2292     Obj       93
    c2292     r228      1
    c2292     r229      1
    c2293     Obj       94
    c2293     r228      1
    c2293     r229      1
    c2294     Obj       95
    c2294     r228      1
    c2294     r229      1
    c2295     Obj       96
    c2295     r229      1
    c2296     Obj       97
    c2296     r229      1
    c2297     Obj       98
    c2297     r229      1
    c2298     Obj       99
    c2298     r229      1
    c2299     Obj       100
    c2299     r229      1
    c2300     Obj       1
    c2300     r229      1
    c2300     r230      1
    c2301     Obj       2
    c2301     r229      1
    c2301     r230      1
    c2302     Obj       3
    c2302     r229      1
    c2302     r230      1
    c2303     Obj       4
    c2303     r229      1
    c2303     r230      1
    c2304     Obj       5
    c2304     r229      1
    c2304     r230      1
    c2305     Obj       6
    c2305     r230      1
    c2306     Obj       7
    c2306     r230      1
    c2307     Obj       8
    c2307     r230      1
    c2308     Obj       9
    c2308     r230      1
    c2309     Obj       10
    c2309     r230      1
    c2310     Obj       11
    c2310     r230      1
    c2310     r231      1
    c2311     Obj       12
    c2311     r230      1
    c2311     r231      1
    c2312     Obj       13
    c2312     r230      1
    c2312     r231      1
    c2313     Obj       14
    c2313     r230      1
    c2313     r231      1
    c2314     Obj       15
    c2314     r230      1
    c2314     r231      1
    c2315     Obj       16
    c2315     r231      1
    c2316     Obj       17
    c2316     r231      1
    c2317     Obj       18
    c2317     r231      1
    c2318     Obj       19
    c2318     r231      1
    c2319     Obj       20
    c2319     r231      1
    c2320     Obj       21
    c2320     r231      1
    c2320     r232      1
    c2321     Obj       22
    c2321     r231      1
    c2321     r232      1
    c2322     Obj       23
    c2322     r231      1
    c2322     r232      1
    c2323     Obj       24
    c2323     r231      1
    c2323     r232      1
    c2324     Obj       25
    c2324     r231      1
    c2324     r232      1
    c2325     Obj       26
    c2325     r232      1
    c2326     Obj       27
    c2326     r232      1
    c2327     Obj       28
    c2327     r232      1
    c2328     Obj       29
    c2328     r232      1
    c2329     Obj       30
    c2329     r232      1
    c2330     Obj       31
    c2330     r232      1
    c2330     r233      1
    c2331     Obj       32
    c2331     r232      1
    c2331     r233      1
    c2332     Obj       33
    c2332     r232      1
    c2332     r233      1
    c2333     Obj       34
    c2333     r232      1
    c2333     r233      1
    c2334     Obj       35
    c2334     r232      1
    c2334     r233      1
    c2335     Obj       36
    c2335     r233      1
    c2336     Obj       37
    c2336     r233      1
    c2337     Obj       38
    c2337     r233      1
    c2338     Obj       39
    c2338     r233      1
    c2339     Obj       40
    c2339     r233      1
    c2340     Obj       41
    c2340     r233      1
    c2340     r234      1
    c2341     Obj       42
    c2341     r233      1
    c2341     r234      1
    c2342     Obj       43
    c2342     r233      1
    c2342     r234      1
    c2343     Obj       44
    c2343     r233      1
    c2343     r234      1
    c2344     Obj       45
    c2344     r233      1
    c2344     r234      1
    c2345     Obj       46
    c2345     r234      1
    c2346     Obj       47
    c2346     r234      1
    c2347     Obj       48
    c2347     r234      1
    c2348     Obj       49
    c2348     r234      1
    c2349     Obj       50
    c2349     r234      1
    c2350     Obj       51
    c2350     r234      1
    c2350     r235      1
    c2351     Obj       52
    c2351     r234      1
    c2351     r235      1
    c2352     Obj       53
    c2352     r234      1
    c2352     r235      1
    c2353     Obj       54
    c2353     r234      1
    c2353     r235      1
    c2354     Obj       55
    c2354     r234      1
    c2354     r235      1
    c2355     Obj       56
    c2355     r235      1
    c2356     Obj       57
    c2356     r235      1
    c2357     Obj       58
    c2357     r235      1
    c2358     Obj       59
    c2358     r235      1
    c2359     Obj       60
    c2359     r235      1
    c2360     Obj       61
    c2360     r235      1
    c2360     r236      1
    c2361     Obj       62
    c2361     r235      1
    c2361     r236      1
    c2362     Obj       63
    c2362     r235      1
    c2362     r236      1
    c2363     Obj       64
    c2363     r235      1
    c2363     r236      1
    c2364     Obj       65
    c2364     r235      1
    c2364     r236      1
    c2365     Obj       66
    c2365     r236      1
    c2366     Obj       67
    c2366     r236      1
    c2367     Obj       68
    c2367     r236      1
    c2368     Obj       69
    c2368     r236      1
    c2369     Obj       70
    c2369     r236      1
    c2370     Obj       71
    c2370     r236      1
    c2370     r237      1
    c2371     Obj       72
    c2371     r236      1
    c2371     r237      1
    c2372     Obj       73
    c2372     r236      1
    c2372     r237      1
    c2373     Obj       74
    c2373     r236      1
    c2373     r237      1
    c2374     Obj       75
    c2374     r236      1
    c2374     r237      1
    c2375     Obj       76
    c2375     r237      1
    c2376     Obj       77
    c2376     r237      1
    c2377     Obj       78
    c2377     r237      1
    c2378     Obj       79
    c2378     r237      1
    c2379     Obj       80
    c2379     r237      1
    c2380     Obj       81
    c2380     r237      1
    c2380     r238      1
    c2381     Obj       82
    c2381     r237      1
    c2381     r238      1
    c2382     Obj       83
    c2382     r237      1
    c2382     r238      1
    c2383     Obj       84
    c2383     r237      1
    c2383     r238      1
    c2384     Obj       85
    c2384     r237      1
    c2384     r238      1
    c2385     Obj       86
    c2385     r238      1
    c2386     Obj       87
    c2386     r238      1
    c2387     Obj       88
    c2387     r238      1
    c2388     Obj       89
    c2388     r238      1
    c2389     Obj       90
    c2389     r238      1
    c2390     Obj       91
    c2390     r238      1
    c2390     r239      1
    c2391     Obj       92
    c2391     r238      1
    c2391     r239      1
    c2392     Obj       93
    c2392     r238      1
    c2392     r239      1
    c2393     Obj       94
    c2393     r238      1
    c2393     r239      1
    c2394     Obj       95
    c2394     r238      1
    c2394     r239      1
    c2395     Obj       96
    c2395     r239      1
    c2396     Obj       97
    c2396     r239      1
    c2397     Obj       98
    c2397     r239      1
    c2398     Obj       99
    c2398     r239      1
    c2399     Obj       100
    c2399     r239      1
    c2400     Obj       1
    c2400     r239      1
    c2400     r240      1
    c2401     Obj       2
    c2401     r239      1
    c2401     r240      1
    c2402     Obj       3
    c2402     r239      1
    c2402     r240      1
    c2403     Obj       4
    c2403     r239      1
    c2403     r240      1
    c2404     Obj       5
    c2404     r239      1
    c2404     r240      1
    c2405     Obj       6
    c2405     r240      1
    c2406     Obj       7
    c2406     r240      1
    c2407     Obj       8
    c2407     r240      1
    c2408     Obj       9
    c2408     r240      1
    c2409     Obj       10
    c2409     r240      1
    c2410     Obj       11
    c2410     r240      1
    c2410     r241      1
    c2411     Obj       12
    c2411     r240      1
    c2411     r241      1
    c2412     Obj       13
    c2412     r240      1
    c2412     r241      1
    c2413     Obj       14
    c2413     r240      1
    c2413     r241      1
    c2414     Obj       15
    c2414     r240      1
    c2414     r241      1
    c2415     Obj       16
    c2415     r241      1
    c2416     Obj       17
    c2416     r241      1
    c2417     Obj       18
    c2417     r241      1
    c2418     Obj       19
    c2418     r241      1
    c2419     Obj       20
    c2419     r241      1
    c2420     Obj       21
    c2420     r241      1
    c2420     r242      1
    c2421     Obj       22
    c2421     r241      1
    c2421     r242      1
    c2422     Obj       23
    c2422     r241      1
    c2422     r242      1
    c2423     Obj       24
    c2423     r241      1
    c2423     r242      1
    c2424     Obj       25
    c2424     r241      1
    c2424     r242      1
    c2425     Obj       26
    c2425     r242      1
    c2426     Obj       27
    c2426     r242      1
    c2427     Obj       28
    c2427     r242      1
    c2428     Obj       29
    c2428     r242      1
    c2429     Obj       30
    c2429     r242      1
    c2430     Obj       31
    c2430     r242      1
    c2430     r243      1
    c2431     Obj       32
    c2431     r242      1
    c2431     r243      1
    c2432     Obj       33
    c2432     r242      1
    c2432     r243      1
    c2433     Obj       34
    c2433     r242      1
    c2433     r243      1
    c2434     Obj       35
    c2434     r242      1
    c2434     r243      1
    c2435     Obj       36
    c2435     r243      1
    c2436     Obj       37
    c2436     r243      1
    c2437     Obj       38
    c2437     r243      1
    c2438     Obj       39
    c2438     r243      1
    c2439     Obj       40
    c2439     r243      1
    c2440     Obj       41
    c2440     r243      1
    c2440     r244      1
    c2441     Obj       42
    c2441     r243      1
    c2441     r244      1
    c2442     Obj       43
    c2442     r243      1
    c2442     r244      1
    c2443     Obj       44
    c2443     r243      1
    c2443     r244      1
    c2444     Obj       45
    c2444     r243      1
    c2444     r244      1
    c2445     Obj       46
    c2445     r244      1
    c2446     Obj       47
    c2446     r244      1
    c2447     Obj       48
    c2447     r244      1
    c2448     Obj       49
    c2448     r244      1
    c2449     Obj       50
    c2449     r244      1
    c2450     Obj       51
    c2450     r244      1
    c2450     r245      1
    c2451     Obj       52
    c2451     r244      1
    c2451     r245      1
    c2452     Obj       53
    c2452     r244      1
    c2452     r245      1
    c2453     Obj       54
    c2453     r244      1
    c2453     r245      1
    c2454     Obj       55
    c2454     r244      1
    c2454     r245      1
    c2455     Obj       56
    c2455     r245      1
    c2456     Obj       57
    c2456     r245      1
    c2457     Obj       58
    c2457     r245      1
    c2458     Obj       59
    c2458     r245      1
    c2459     Obj       60
    c2459     r245      1
    c2460     Obj       61
    c2460     r245      1
    c2460     r246      1
    c2461     Obj       62
    c2461     r245      1
    c2461     r246      1
    c2462     Obj       63
    c2462     r245      1
    c2462     r246      1
    c2463     Obj       64
    c2463     r245      1
    c2463     r246      1
    c2464     Obj       65
    c2464     r245      1
    c2464     r246      1
    c2465     Obj       66
    c2465     r246      1
    c2466     Obj       67
    c2466     r246      1
    c2467     Obj       68
    c2467     r246      1
    c2468     Obj       69
    c2468     r246      1
    c2469     Obj       70
    c2469     r246      1
    c2470     Obj       71
    c2470     r246      1
    c2470     r247      1
    c2471     Obj       72
    c2471     r246      1
    c2471     r247      1
    c2472     Obj       73
    c2472     r246      1
    c2472     r247      1
    c2473     Obj       74
    c2473     r246      1
    c2473     r247      1
    c2474     Obj       75
    c2474     r246      1
    c2474     r247      1
    c2475     Obj       76
    c2475     r247      1
    c2476     Obj       77
    c2476     r247      1
    c2477     Obj       78
    c2477     r247      1
    c2478     Obj       79
    c2478     r247      1
    c2479     Obj       80
    c2479     r247      1
    c2480     Obj       81
    c2480     r247      1
    c2480     r248      1
    c2481     Obj       82
    c2481     r247      1
    c2481     r248      1
    c2482     Obj       83
    c2482     r247      1
    c2482     r248      1
    c2483     Obj       84
    c2483     r247      1
    c2483     r248      1
    c2484     Obj       85
    c2484     r247      1
    c2484     r248      1
    c2485     Obj       86
    c2485     r248      1
    c2486     Obj       87
    c2486     r248      1
    c2487     Obj       88
    c2487     r248      1
    c2488     Obj       89
    c2488     r248      1
    c2489     Obj       90
    c2489     r248      1
    c2490     Obj       91
    c2490     r248      1
    c2490     r249      1
    c2491     Obj       92
    c2491     r248      1
    c2491     r249      1
    c2492     Obj       93
    c2492     r248      1
    c2492     r249      1
    c2493     Obj       94
    c2493     r248      1
    c2493     r249      1
    c2494     Obj       95
    c2494     r248      1
    c2494     r249      1
    c2495     Obj       96
    c2495     r249      1
    c2496     Obj       97
    c2496     r249      1
    c2497     Obj       98
    c2497     r249      1
    c2498     Obj       99
    c2498     r249      1
    c2499     Obj       100
    c2499     r249      1
    c2500     Obj       1
    c2500     r249      1
    c2500     r250      1
    c2501     Obj       2
    c2501     r249      1
    c2501     r250      1
    c2502     Obj       3
    c2502     r249      1
    c2502     r250      1
    c2503     Obj       4
    c2503     r249      1
    c2503     r250      1
    c2504     Obj       5
    c2504     r249      1
    c2504     r250      1
    c2505     Obj       6
    c2505     r250      1
    c2506     Obj       7
    c2506     r250      1
    c2507     Obj       8
    c2507     r250      1
    c2508     Obj       9
    c2508     r250      1
    c2509     Obj       10
    c2509     r250      1
    c2510     Obj       11
    c2510     r250      1
    c2510     r251      1
    c2511     Obj       12
    c2511     r250      1
    c2511     r251      1
    c2512     Obj       13
    c2512     r250      1
    c2512     r251      1
    c2513     Obj       14
    c2513     r250      1
    c2513     r251      1
    c2514     Obj       15
    c2514     r250      1
    c2514     r251      1
    c2515     Obj       16
    c2515     r251      1
    c2516     Obj       17
    c2516     r251      1
    c2517     Obj       18
    c2517     r251      1
    c2518     Obj       19
    c2518     r251      1
    c2519     Obj       20
    c2519     r251      1
    c2520     Obj       21
    c2520     r251      1
    c2520     r252      1
    c2521     Obj       22
    c2521     r251      1
    c2521     r252      1
    c2522     Obj       23
    c2522     r251      1
    c2522     r252      1
    c2523     Obj       24
    c2523     r251      1
    c2523     r252      1
    c2524     Obj       25
    c2524     r251      1
    c2524     r252      1
    c2525     Obj       26
    c2525     r252      1
    c2526     Obj       27
    c2526     r252      1
    c2527     Obj       28
    c2527     r252      1
    c2528     Obj       29
    c2528     r252      1
    c2529     Obj       30
    c2529     r252      1
    c2530     Obj       31
    c2530     r252      1
    c2530     r253      1
    c2531     Obj       32
    c2531     r252      1
    c2531     r253      1
    c2532     Obj       33
    c2532     r252      1
    c2532     r253      1
    c2533     Obj       34
    c2533     r252      1
    c2533     r253      1
    c2534     Obj       35
    c2534     r252      1
    c2534     r253      1
    c2535     Obj       36
    c2535     r253      1
    c2536     Obj       37
    c2536     r253      1
    c2537     Obj       38
    c2537     r253      1
    c2538     Obj       39
    c2538     r253      1
    c2539     Obj       40
    c2539     r253      1
    c2540     Obj       41
    c2540     r253      1
    c2540     r254      1
    c2541     Obj       42
    c2541     r253      1
    c2541     r254      1
    c2542     Obj       43
    c2542     r253      1
    c2542     r254      1
    c2543     Obj       44
    c2543     r253      1
    c2543     r254      1
    c2544     Obj       45
    c2544     r253      1
    c2544     r254      1
    c2545     Obj       46
    c2545     r254      1
    c2546     Obj       47
    c2546     r254      1
    c2547     Obj       48
    c2547     r254      1
    c2548     Obj       49
    c2548     r254      1
    c2549     Obj       50
    c2549     r254      1
    c2550     Obj       51
    c2550     r254      1
    c2550     r255      1
    c2551     Obj       52
    c2551     r254      1
    c2551     r255      1
    c2552     Obj       53
    c2552     r254      1
    c2552     r255      1
    c2553     Obj       54
    c2553     r254      1
    c2553     r255      1
    c2554     Obj       55
    c2554     r254      1
    c2554     r255      1
    c2555     Obj       56
    c2555     r255      1
    c2556     Obj       57
    c2556     r255      1
    c2557     Obj       58
    c2557     r255      1
    c2558     Obj       59
    c2558     r255      1
    c2559     Obj       60
    c2559     r255      1
    c2560     Obj       61
    c2560     r255      1
    c2560     r256      1
    c2561     Obj       62
    c2561     r255      1
    c2561     r256      1
    c2562     Obj       63
    c2562     r255      1
    c2562     r256      1
    c2563     Obj       64
    c2563     r255      1
    c2563     r256      1
    c2564     Obj       65
    c2564     r255      1
    c2564     r256      1
    c2565     Obj       66
    c2565     r256      1
    c2566     Obj       67
    c2566     r256      1
    c2567     Obj       68
    c2567     r256      1
    c2568     Obj       69
    c2568     r256      1
    c2569     Obj       70
    c2569     r256      1
    c2570     Obj       71
    c2570     r256      1
    c2570     r257      1
    c2571     Obj       72
    c2571     r256      1
    c2571     r257      1
    c2572     Obj       73
    c2572     r256      1
    c2572     r257      1
    c2573     Obj       74
    c2573     r256      1
    c2573     r257      1
    c2574     Obj       75
    c2574     r256      1
    c2574     r257      1
    c2575     Obj       76
    c2575     r257      1
    c2576     Obj       77
    c2576     r257      1
    c2577     Obj       78
    c2577     r257      1
    c2578     Obj       79
    c2578     r257      1
    c2579     Obj       80
    c2579     r257      1
    c2580     Obj       81
    c2580     r257      1
    c2580     r258      1
    c2581     Obj       82
    c2581     r257      1
    c2581     r258      1
    c2582     Obj       83
    c2582     r257      1
    c2582     r258      1
    c2583     Obj       84
    c2583     r257      1
    c2583     r258      1
    c2584     Obj       85
    c2584     r257      1
    c2584     r258      1
    c2585     Obj       86
    c2585     r258      1
    c2586     Obj       87
    c2586     r258      1
    c2587     Obj       88
    c2587     r258      1
    c2588     Obj       89
    c2588     r258      1
    c2589     Obj       90
    c2589     r258      1
    c2590     Obj       91
    c2590     r258      1
    c2590     r259      1
    c2591     Obj       92
    c2591     r258      1
    c2591     r259      1
    c2592     Obj       93
    c2592     r258      1
    c2592     r259      1
    c2593     Obj       94
    c2593     r258      1
    c2593     r259      1
    c2594     Obj       95
    c2594     r258      1
    c2594     r259      1
    c2595     Obj       96
    c2595     r259      1
    c2596     Obj       97
    c2596     r259      1
    c2597     Obj       98
    c2597     r259      1
    c2598     Obj       99
    c2598     r259      1
    c2599     Obj       100
    c2599     r259      1
    c2600     Obj       1
    c2600     r259      1
    c2600     r260      1
    c2601     Obj       2
    c2601     r259      1
    c2601     r260      1
    c2602     Obj       3
    c2602     r259      1
    c2602     r260      1
    c2603     Obj       4
    c2603     r259      1
    c2603     r260      1
    c2604     Obj       5
    c2604     r259      1
    c2604     r260      1
    c2605     Obj       6
    c2605     r260      1
    c2606     Obj       7
    c2606     r260      1
    c2607     Obj       8
    c2607     r260      1
    c2608     Obj       9
    c2608     r260      1
    c2609     Obj       10
    c2609     r260      1
    c2610     Obj       11
    c2610     r260      1
    c2610     r261      1
    c2611     Obj       12
    c2611     r260      1
    c2611     r261      1
    c2612     Obj       13
    c2612     r260      1
    c2612     r261      1
    c2613     Obj       14
    c2613     r260      1
    c2613     r261      1
    c2614     Obj       15
    c2614     r260      1
    c2614     r261      1
    c2615     Obj       16
    c2615     r261      1
    c2616     Obj       17
    c2616     r261      1
    c2617     Obj       18
    c2617     r261      1
    c2618     Obj       19
    c2618     r261      1
    c2619     Obj       20
    c2619     r261      1
    c2620     Obj       21
    c2620     r261      1
    c2620     r262      1
    c2621     Obj       22
    c2621     r261      1
    c2621     r262      1
    c2622     Obj       23
    c2622     r261      1
    c2622     r262      1
    c2623     Obj       24
    c2623     r261      1
    c2623     r262      1
    c2624     Obj       25
    c2624     r261      1
    c2624     r262      1
    c2625     Obj       26
    c2625     r262      1
    c2626     Obj       27
    c2626     r262      1
    c2627     Obj       28
    c2627     r262      1
    c2628     Obj       29
    c2628     r262      1
    c2629     Obj       30
    c2629     r262      1
    c2630     Obj       31
    c2630     r262      1
    c2630     r263      1
    c2631     Obj       32
    c2631     r262      1
    c2631     r263      1
    c2632     Obj       33
    c2632     r262      1
    c2632     r263      1
    c2633     Obj       34
    c2633     r262      1
    c2633     r263      1
    c2634     Obj       35
    c2634     r262      1
    c2634     r263      1
    c2635     Obj       36
    c2635     r263      1
    c2636     Obj       37
    c2636     r263      1
    c2637     Obj       38
    c2637     r263      1
    c2638     Obj       39
    c2638     r263      1
    c2639     Obj       40
    c2639     r263      1
    c2640     Obj       41
    c2640     r263      1
    c2640     r264      1
    c2641     Obj       42
    c2641     r263      1
    c2641     r264      1
    c2642     Obj       43
    c2642     r263      1
    c2642     r264      1
    c2643     Obj       44
    c2643     r263      1
    c2643     r264      1
    c2644     Obj       45
    c2644     r263      1
    c2644     r264      1
    c2645     Obj       46
    c2645     r264      1
    c2646     Obj       47
    c2646     r264      1
    c2647     Obj       48
    c2647     r264      1
    c2648     Obj       49
    c2648     r264      1
    c2649     Obj       50
    c2649     r264      1
    c2650     Obj       51
    c2650     r264      1
    c2650     r265      1
    c2651     Obj       52
    c2651     r264      1
    c2651     r265      1
    c2652     Obj       53
    c2652     r264      1
    c2652     r265      1
    c2653     Obj       54
    c2653     r264      1
    c2653     r265      1
    c2654     Obj       55
    c2654     r264      1
    c2654     r265      1
    c2655     Obj       56
    c2655     r265      1
    c2656     Obj       57
    c2656     r265      1
    c2657     Obj       58
    c2657     r265      1
    c2658     Obj       59
    c2658     r265      1
    c2659     Obj       60
    c2659     r265      1
    c2660     Obj       61
    c2660     r265      1
    c2660     r266      1
    c2661     Obj       62
    c2661     r265      1
    c2661     r266      1
    c2662     Obj       63
    c2662     r265      1
    c2662     r266      1
    c2663     Obj       64
    c2663     r265      1
    c2663     r266      1
    c2664     Obj       65
    c2664     r265      1
    c2664     r266      1
    c2665     Obj       66
    c2665     r266      1
    c2666     Obj       67
    c2666     r266      1
    c2667     Obj       68
    c2667     r266      1
    c2668     Obj       69
    c2668     r266      1
    c2669     Obj       70
    c2669     r266      1
    c2670     Obj       71
    c2670     r266      1
    c2670     r267      1
    c2671     Obj       72
    c2671     r266      1
    c2671     r267      1
    c2672     Obj       73
    c2672     r266      1
    c2672     r267      1
    c2673     Obj       74
    c2673     r266      1
    c2673     r267      1
    c2674     Obj       75
    c2674     r266      1
    c2674     r267      1
    c2675     Obj       76
    c2675     r267      1
    c2676     Obj       77
    c2676     r267      1
    c2677     Obj       78
    c2677     r267      1
    c2678     Obj       79
    c2678     r267      1
    c2679     Obj       80
    c2679     r267      1
    c2680     Obj       81
    c2680     r267      1
    c2680     r268      1
    c2681     Obj       82
    c2681     r267      1
    c2681     r268      1
    c2682     Obj       83
    c2682     r267      1
    c2682     r268      1
    c2683     Obj       84
    c2683     r267      1
    c2683     r268      1
    c2684     Obj       85
    c2684     r267      1
    c2684     r268      1
    c2685     Obj       86
    c2685     r268      1
    c2686     Obj       87
    c2686     r268      1
    c2687     Obj       88
    c2687     r268      1
    c2688     Obj       89
    c2688     r268      1
    c2689     Obj       90
    c2689     r268      1
    c2690     Obj       91
    c2690     r268      1
    c2690     r269      1
    c2691     Obj       92
    c2691     r268      1
    c2691     r269      1
    c2692     Obj       93
    c2692     r268      1
    c2692     r269      1
    c2693     Obj       94
    c2693     r268      1
    c2693     r269      1
    c2694     Obj       95
    c2694     r268      1
    c2694     r269      1
    c2695     Obj       96
    c2695     r269      1
    c2696     Obj       97
    c2696     r269      1
    c2697     Obj       98
    c2697     r269      1
    c2698     Obj       99
    c2698     r269      1
    c2699     Obj       100
    c2699     r269      1
    c2700     Obj       1
    c2700     r269      1
    c2700     r270      1
    c2701     Obj       2
    c2701     r269      1
    c2701     r270      1
    c2702     Obj       3
    c2702     r269      1
    c2702     r270      1
    c2703     Obj       4
    c2703     r269      1
    c2703     r270      1
    c2704     Obj       5
    c2704     r269      1
    c2704     r270      1
    c2705     Obj       6
    c2705     r270      1
    c2706     Obj       7
    c2706     r270      1
    c2707     Obj       8
    c2707     r270      1
    c2708     Obj       9
    c2708     r270      1
    c2709     Obj       10
    c2709     r270      1
    c2710     Obj       11
    c2710     r270      1
    c2710     r271      1
    c2711     Obj       12
    c2711     r270      1
    c2711     r271      1
    c2712     Obj       13
    c2712     r270      1
    c2712     r271      1
    c2713     Obj       14
    c2713     r270      1
    c2713     r271      1
    c2714     Obj       15
    c2714     r270      1
    c2714     r271      1
    c2715     Obj       16
    c2715     r271      1
    c2716     Obj       17
    c2716     r271      1
    c2717     Obj       18
    c2717     r271      1
    c2718     Obj       19
    c2718     r271      1
    c2719     Obj       20
    c2719     r271      1
    c2720     Obj       21
    c2720     r271      1
    c2720     r272      1
    c2721     Obj       22
    c2721     r271      1
    c2721     r272      1
    c2722     Obj       23
    c2722     r271      1
    c2722     r272      1
    c2723     Obj       24
    c2723     r271      1
    c2723     r272      1
    c2724     Obj       25
    c2724     r271      1
    c2724     r272      1
    c2725     Obj       26
    c2725     r272      1
    c2726     Obj       27
    c2726     r272      1
    c2727     Obj       28
    c2727     r272      1
    c2728     Obj       29
    c2728     r272      1
    c2729     Obj       30
    c2729     r272      1
    c2730     Obj       31
    c2730     r272      1
    c2730     r273      1
    c2731     Obj       32
    c2731     r272      1
    c2731     r273      1
    c2732     Obj       33
    c2732     r272      1
    c2732     r273      1
    c2733     Obj       34
    c2733     r272      1
    c2733     r273      1
    c2734     Obj       35
    c2734     r272      1
    c2734     r273      1
    c2735     Obj       36
    c2735     r273      1
    c2736     Obj       37
    c2736     r273      1
    c2737     Obj       38
    c2737     r273      1
    c2738     Obj       39
    c2738     r273      1
    c2739     Obj       40
    c2739     r273      1
    c2740     Obj       41
    c2740     r273      1
    c2740     r274      1
    c2741     Obj       42
    c2741     r273      1
    c2741     r274      1
    c2742     Obj       43
    c2742     r273      1
    c2742     r274      1
    c2743     Obj       44
    c2743     r273      1
    c2743     r274      1
    c2744     Obj       45
    c2744     r273      1
    c2744     r274      1
    c2745     Obj       46
    c2745     r274      1
    c2746     Obj       47
    c2746     r274      1
    c2747     Obj       48
    c2747     r274      1
    c2748     Obj       49
    c2748     r274      1
    c2749     Obj       50
    c2749     r274      1
    c2750     Obj       51
    c2750     r274      1
    c2750     r275      1
    c2751     Obj       52
    c2751     r274      1
    c2751     r275      1
    c2752     Obj       53
    c2752     r274      1
    c2752     r275      1
    c2753     Obj       54
    c2753     r274      1
    c2753     r275      1
    c2754     Obj       55
    c2754     r274      1
    c2754     r275      1
    c2755     Obj       56
    c2755     r275      1
    c2756     Obj       57
    c2756     r275      1
    c2757     Obj       58
    c2757     r275      1
    c2758     Obj       59
    c2758     r275      1
    c2759     Obj       60
    c2759     r275      1
    c2760     Obj       61
    c2760     r275      1
    c2760     r276      1
    c2761     Obj       62
    c2761     r275      1
    c2761     r276      1
    c2762     Obj       63
    c2762     r275      1
    c2762     r276      1
    c2763     Obj       64
    c2763     r275      1
    c2763     r276      1
    c2764     Obj       65
    c2764     r275      1
    c2764     r276      1
    c2765     Obj       66
    c2765     r276      1
    c2766     Obj       67
    c2766     r276      1
    c2767     Obj       68
    c2767     r276      1
    c2768     Obj       69
    c2768     r276      1
    c2769     Obj       70
    c2769     r276      1
    c2770     Obj       71
    c2770     r276      1
    c2770     r277      1
    c2771     Obj       72
    c2771     r276      1
    c2771     r277      1
    c2772     Obj       73
    c2772     r276      1
    c2772     r277      1
    c2773     Obj       74
    c2773     r276      1
    c2773     r277      1
    c2774     Obj       75
    c2774     r276      1
    c2774     r277      1
    c2775     Obj       76
    c2775     r277      1
    c2776     Obj       77
    c2776     r277      1
    c2777     Obj       78
    c2777     r277      1
    c2778     Obj       79
    c2778     r277      1
    c2779     Obj       80
    c2779     r277      1
    c2780     Obj       81
    c2780     r277      1
    c2780     r278      1
    c2781     Obj       82
    c2781     r277      1
    c2781     r278      1
    c2782     Obj       83
    c2782     r277      1
    c2782     r278      1
    c2783     Obj       84
    c2783     r277      1
    c2783     r278      1
    c2784     Obj       85
    c2784     r277      1
    c2784     r278      1
    c2785     Obj       86
    c2785     r278      1
    c2786     Obj       87
    c2786     r278      1
    c2787     Obj       88
    c2787     r278      1
    c2788     Obj       89
    c2788     r278      1
    c2789     Obj       90
    c2789     r278      1
    c2790     Obj       91
    c2790     r278      1
    c2790     r279      1
    c2791     Obj       92
    c2791     r278      1
    c2791     r279      1
    c2792     Obj       93
    c2792     r278      1
    c2792     r279      1
    c2793     Obj       94
    c2793     r278      1
    c2793     r279      1
    c2794     Obj       95
    c2794     r278      1
    c2794     r279      1
    c2795     Obj       96
    c2795     r279      1
    c2796     Obj       97
    c2796     r279      1
    c2797     Obj       98
    c2797     r279      1
    c2798     Obj       99
    c2798     r279      1
    c2799     Obj       100
    c2799     r279      1
    c2800     Obj       1
    c2800     r279      1
    c2800     r280      1
    c2801     Obj       2
    c2801     r279      1
    c2801     r280      1
    c2802     Obj       3
    c2802     r279      1
    c2802     r280      1
    c2803     Obj       4
    c2803     r279      1
    c2803     r280      1
    c2804     Obj       5
    c2804     r279      1
    c2804     r280      1
    c2805     Obj       6
    c2805     r280      1
    c2806     Obj       7
    c2806     r280      1
    c2807     Obj       8
    c2807     r280      1
    c2808     Obj       9
    c2808     r280      1
    c2809     Obj       10
    c2809     r280      1
    c2810     Obj       11
    c2810     r280      1
    c2810     r281      1
    c2811     Obj       12
    c2811     r280      1
    c2811     r281      1
    c2812     Obj       13
    c2812     r280      1
    c2812     r281      1
    c2813     Obj       14
    c2813     r280      1
    c2813     r281      1
    c2814     Obj       15
    c2814     r280      1
    c2814     r281      1
    c2815     Obj       16
    c2815     r281      1
    c2816     Obj       17
    c2816     r281      1
    c2817     Obj       18
    c2817     r281      1
    c2818     Obj       19
    c2818     r281      1
    c2819     Obj       20
    c2819     r281      1
    c2820     Obj       21
    c2820     r281      1
    c2820     r282      1
    c2821     Obj       22
    c2821     r281      1
    c2821     r282      1
    c2822     Obj       23
    c2822     r281      1
    c2822     r282      1
    c2823     Obj       24
    c2823     r281      1
    c2823     r282      1
    c2824     Obj       25
    c2824     r281      1
    c2824     r282      1
    c2825     Obj       26
    c2825     r282      1
    c2826     Obj       27
    c2826     r282      1
    c2827     Obj       28
    c2827     r282      1
    c2828     Obj       29
    c2828     r282      1
    c2829     Obj       30
    c2829     r282      1
    c2830     Obj       31
    c2830     r282      1
    c2830     r283      1
    c2831     Obj       32
    c2831     r282      1
    c2831     r283      1
    c2832     Obj       33
    c2832     r282      1
    c2832     r283      1
    c2833     Obj       34
    c2833     r282      1
    c2833     r283      1
    c2834     Obj       35
    c2834     r282      1
    c2834     r283      1
    c2835     Obj       36
    c2835     r283      1
    c2836     Obj       37
    c2836     r283      1
    c2837     Obj       38
    c2837     r283      1
    c2838     Obj       39
    c2838     r283      1
    c2839     Obj       40
    c2839     r283      1
    c2840     Obj       41
    c2840     r283      1
    c2840     r284      1
    c2841     Obj       42
    c2841     r283      1
    c2841     r284      1
    c2842     Obj       43
    c2842     r283      1
    c2842     r284      1
    c2843     Obj       44
    c2843     r283      1
    c2843     r284      1
    c2844     Obj       45
    c2844     r283      1
    c2844     r284      1
    c2845     Obj       46
    c2845     r284      1
    c2846     Obj       47
    c2846     r284      1
    c2847     Obj       48
    c2847     r284      1
    c2848     Obj       49
    c2848     r284      1
    c2849     Obj       50
    c2849     r284      1
    c2850     Obj       51
    c2850     r284      1
    c2850     r285      1
    c2851     Obj       52
    c2851     r284      1
    c2851     r285      1
    c2852     Obj       53
    c2852     r284      1
    c2852     r285      1
    c2853     Obj       54
    c2853     r284      1
    c2853     r285      1
    c2854     Obj       55
    c2854     r284      1
    c2854     r285      1
    c2855     Obj       56
    c2855     r285      1
    c2856     Obj       57
    c2856     r285      1
    c2857     Obj       58
    c2857     r285      1
    c2858     Obj       59
    c2858     r285      1
    c2859     Obj       60
    c2859     r285      1
    c2860     Obj       61
    c2860     r285      1
    c2860     r286      1
    c2861     Obj       62
    c2861     r285      1
    c2861     r286      1
    c2862     Obj       63
    c2862     r285      1
    c2862     r286      1
    c2863     Obj       64
    c2863     r285      1
    c2863     r286      1
    c2864     Obj       65
    c2864     r285      1
    c2864     r286      1
    c2865     Obj       66
    c2865     r286      1
    c2866     Obj       67
    c2866     r286      1
    c2867     Obj       68
    c2867     r286      1
    c2868     Obj       69
    c2868     r286      1
    c2869     Obj       70
    c2869     r286      1
    c2870     Obj       71
    c2870     r286      1
    c2870     r287      1
    c2871     Obj       72
    c2871     r286      1
    c2871     r287      1
    c2872     Obj       73
    c2872     r286      1
    c2872     r287      1
    c2873     Obj       74
    c2873     r286      1
    c2873     r287      1
    c2874     Obj       75
    c2874     r286      1
    c2874     r287      1
    c2875     Obj       76
    c2875     r287      1
    c2876     Obj       77
    c2876     r287      1
    c2877     Obj       78
    c2877     r287      1
    c2878     Obj       79
    c2878     r287      1
    c2879     Obj       80
    c2879     r287      1
    c2880     Obj       81
    c2880     r287      1
    c2880     r288      1
    c2881     Obj       82
    c2881     r287      1
    c2881     r288      1
    c2882     Obj       83
    c2882     r287      1
    c2882     r288      1
    c2883     Obj       84
    c2883     r287      1
    c2883     r288      1
    c2884     Obj       85
    c2884     r287      1
    c2884     r288      1
    c2885     Obj       86
    c2885     r288      1
    c2886     Obj       87
    c2886     r288      1
    c2887     Obj       88
    c2887     r288      1
    c2888     Obj       89
    c2888     r288      1
    c2889     Obj       90
    c2889     r288      1
    c2890     Obj       91
    c2890     r288      1
    c2890     r289      1
    c2891     Obj       92
    c2891     r288      1
    c2891     r289      1
    c2892     Obj       93
    c2892     r288      1
    c2892     r289      1
    c2893     Obj       94
    c2893     r288      1
    c2893     r289      1
    c2894     Obj       95
    c2894     r288      1
    c2894     r289      1
    c2895     Obj       96
    c2895     r289      1
    c2896     Obj       97
    c2896     r289      1
    c2897     Obj       98
    c2897     r289      1
    c2898     Obj       99
    c2898     r289      1
    c2899     Obj       100
    c2899     r289      1
    c2900     Obj       1
    c2900     r289      1
    c2900     r290      1
    c2901     Obj       2
    c2901     r289      1
    c2901     r290      1
    c2902     Obj       3
    c2902     r289      1
    c2902     r290      1
    c2903     Obj       4
    c2903     r289      1
    c2903     r290      1
    c2904     Obj       5
    c2904     r289      1
    c2904     r290      1
    c2905     Obj       6
    c2905     r290      1
    c2906     Obj       7
    c2906     r290      1
    c2907     Obj       8
    c2907     r290      1
    c2908     Obj       9
    c2908     r290      1
    c2909     Obj       10
    c2909     r290      1
    c2910     Obj       11
    c2910     r290      1
    c2910     r291      1
    c2911     Obj       12
    c2911     r290      1
    c2911     r291      1
    c2912     Obj       13
    c2912     r290      1
    c2912     r291      1
    c2913     Obj       14
    c2913     r290      1
    c2913     r291      1
    c2914     Obj       15
    c2914     r290      1
    c2914     r291      1
    c2915     Obj       16
    c2915     r291      1
    c2916     Obj       17
    c2916     r291      1
    c2917     Obj       18
    c2917     r291      1
    c2918     Obj       19
    c2918     r291      1
    c2919     Obj       20
    c2919     r291      1
    c2920     Obj       21
    c2920     r291      1
    c2920     r292      1
    c2921     Obj       22
    c2921     r291      1
    c2921     r292      1
    c2922     Obj       23
    c2922     r291      1
    c2922     r292      1
    c2923     Obj       24
    c2923     r291      1
    c2923     r292      1
    c2924     Obj       25
    c2924     r291      1
    c2924     r292      1
    c2925     Obj       26
    c2925     r292      1
    c2926     Obj       27
    c2926     r292      1
    c2927     Obj       28
    c2927     r292      1
    c2928     Obj       29
    c2928     r292      1
    c2929     Obj       30
    c2929     r292      1
    c2930     Obj       31
    c2930     r292      1
    c2930     r293      1
    c2931     Obj       32
    c2931     r292      1
    c2931     r293      1
    c2932     Obj       33
    c2932     r292      1
    c2932     r293      1
    c2933     Obj       34
    c2933     r292      1
    c2933     r293      1
    c2934     Obj       35
    c2934     r292      1
    c2934     r293      1
    c2935     Obj       36
    c2935     r293      1
    c2936     Obj       37
    c2936     r293      1
    c2937     Obj       38
    c2937     r293      1
    c2938     Obj       39
    c2938     r293      1
    c2939     Obj       40
    c2939     r293      1
    c2940     Obj       41
    c2940     r293      1
    c2940     r294      1
    c2941     Obj       42
    c2941     r293      1
    c2941     r294      1
    c2942     Obj       43
    c2942     r293      1
    c2942     r294      1
    c2943     Obj       44
    c2943     r293      1
    c2943     r294      1
    c2944     Obj       45
    c2944     r293      1
    c2944     r294      1
    c2945     Obj       46
    c2945     r294      1
    c2946     Obj       47
    c2946     r294      1
    c2947     Obj       48
    c2947     r294      1
    c2948     Obj       49
    c2948     r294      1
    c2949     Obj       50
    c2949     r294      1
    c2950     Obj       51
    c2950     r294      1
    c2950     r295      1
    c2951     Obj       52
    c2951     r294      1
    c2951     r295      1
    c2952     Obj       53
    c2952     r294      1
    c2952     r295      1
    c2953     Obj       54
    c2953     r294      1
    c2953     r295      1
    c2954     Obj       55
    c2954     r294      1
    c2954     r295      1
    c2955     Obj       56
    c2955     r295      1
    c2956     Obj       57
    c2956     r295      1
    c2957     Obj       58
    c2957     r295      1
    c2958     Obj       59
    c2958     r295      1
    c2959     Obj       60
    c2959     r295      1
    c2960     Obj       61
    c2960     r295      1
    c2960     r296      1
    c2961     Obj       62
    c2961     r295      1
    c2961     r296      1
    c2962     Obj       63
    c2962     r295      1
    c2962     r296      1
    c2963     Obj       64
    c2963     r295      1
    c2963     r296      1
    c2964     Obj       65
    c2964     r295      1
    c2964     r296      1
    c2965     Obj       66
    c2965     r296      1
    c2966     Obj       67
    c2966     r296      1
    c2967     Obj       68
    c2967     r296      1
    c2968     Obj       69
    c2968     r296      1
    c2969     Obj       70
    c2969     r296      1
    c2970     Obj       71
    c2970     r296      1
    c2970     r297      1
    c2971     Obj       72
    c2971     r296      1
    c2971     r297      1
    c2972     Obj       73
    c2972     r296      1
    c2972     r297      1
    c2973     Obj       74
    c2973     r296      1
    c2973     r297      1
    c2974     Obj       75
    c2974     r296      1
    c2974     r297      1
    c2975     Obj       76
    c2975     r297      1
    c2976     Obj       77
    c2976     r297      1
    c2977     Obj       78
    c2977     r297      1
    c2978     Obj       79
    c2978     r297      1
    c2979     Obj       80
    c2979     r297      1
    c2980     Obj       81
    c2980     r297      1
    c2980     r298      1
    c2981     Obj       82
    c2981     r297      1
    c2981     r298      1
    c2982     Obj       83
    c2982     r297      1
    c2982     r298      1
    c2983     Obj       84
    c2983     r297      1
    c2983     r298      1
    c2984     Obj       85
    c2984     r297      1
    c2984     r298      1
    c2985     Obj       86
    c2985     r298      1
    c2986     Obj       87
    c2986     r298      1
    c2987     Obj       88
    c2987     r298      1
    c2988     Obj       89
    c2988     r298      1
    c2989     Obj       90
    c2989     r298      1
    c2990     Obj       91
    c2990     r298      1
    c2990     r299      1
    c2991     Obj       92
    c2991     r298      1
    c2991     r299      1
    c2992     Obj       93
    c2992     r298      1
    c2992     r299      1
    c2993     Obj       94
    c2993     r298      1
    c2993     r299      1
    c2994     Obj       95
    c2994     r298      1
    c2994     r299      1
    c2995     Obj       96
    c2995     r299      1
    c2996     Obj       97
    c2996     r299      1
    c2997     Obj       98
    c2997     r299      1
    c2998     Obj       99
    c2998     r299      1
    c2999     Obj       100
    c2999     r299      1
    c3000     Obj       1
    c3000     r299      1
    c3000     r300      1
    c3001     Obj       2
    c3001     r299      1
    c3001     r300      1
    c3002     Obj       3
    c3002     r299      1
    c3002     r300      1
    c3003     Obj       4
    c3003     r299      1
    c3003     r300      1
    c3004     Obj       5
    c3004     r299      1
    c3004     r300      1
    c3005     Obj       6
    c3005     r300      1
    c3006     Obj       7
    c3006     r300      1
    c3007     Obj       8
    c3007     r300      1
    c3008     Obj       9
    c3008     r300      1
    c3009     Obj       10
    c3009     r300      1
    c3010     Obj       11
    c3010     r300      1
    c3010     r301      1
    c3011     Obj       12
    c3011     r300      1
    c3011     r301      1
    c3012     Obj       13
    c3012     r300      1
    c3012     r301      1
    c3013     Obj       14
    c3013     r300      1
    c3013     r301      1
    c3014     Obj       15
    c3014     r300      1
    c3014     r301      1
    c3015     Obj       16
    c3015     r301      1
    c3016     Obj       17
    c3016     r301      1
    c3017     Obj       18
    c3017     r301      1
    c3018     Obj       19
    c3018     r301      1
    c3019     Obj       20
    c3019     r301      1
    c3020     Obj       21
    c3020     r301      1
    c3020     r302      1
    c3021     Obj       22
    c3021     r301      1
    c3021     r302      1
    c3022     Obj       23
    c3022     r301      1
    c3022     r302      1
    c3023     Obj       24
    c3023     r301      1
    c3023     r302      1
    c3024     Obj       25
    c3024     r301      1
    c3024     r302      1
    c3025     Obj       26
    c3025     r302      1
    c3026     Obj       27
    c3026     r302      1
    c3027     Obj       28
    c3027     r302      1
    c3028     Obj       29
    c3028     r302      1
    c3029     Obj       30
    c3029     r302      1
    c3030     Obj       31
    c3030     r302      1
    c3030     r303      1
    c3031     Obj       32
    c3031     r302      1
    c3031     r303      1
    c3032     Obj       33
    c3032     r302      1
    c3032     r303      1
    c3033     Obj       34
    c3033     r302      1
    c3033     r303      1
    c3034     Obj       35
    c3034     r302      1
    c3034     r303      1
    c3035     Obj       36
    c3035     r303      1
    c3036     Obj       37
    c3036     r303      1
    c3037     Obj       38
    c3037     r303      1
    c3038     Obj       39
    c3038     r303      1
    c3039     Obj       40
    c3039     r303      1
    c3040     Obj       41
    c3040     r303      1
    c3040     r304      1
    c3041     Obj       42
    c3041     r303      1
    c3041     r304      1
    c3042     Obj       43
    c3042     r303      1
    c3042     r304      1
    c3043     Obj       44
    c3043     r303      1
    c3043     r304      1
    c3044     Obj       45
    c3044     r303      1
    c3044     r304      1
    c3045     Obj       46
    c3045     r304      1
    c3046     Obj       47
    c3046     r304      1
    c3047     Obj       48
    c3047     r304      1
    c3048     Obj       49
    c3048     r304      1
    c3049     Obj       50
    c3049     r304      1
    c3050     Obj       51
    c3050     r304      1
    c3050     r305      1
    c3051     Obj       52
    c3051     r304      1
    c3051     r305      1
    c3052     Obj       53
    c3052     r304      1
    c3052     r305      1
    c3053     Obj       54
    c3053     r304      1
    c3053     r305      1
    c3054     Obj       55
    c3054     r304      1
    c3054     r305      1
    c3055     Obj       56
    c3055     r305      1
    c3056     Obj       57
    c3056     r305      1
    c3057     Obj       58
    c3057     r305      1
    c3058     Obj       59
    c3058     r305      1
    c3059     Obj       60
    c3059     r305      1
    c3060     Obj       61
    c3060     r305      1
    c3060     r306      1
    c3061     Obj       62
    c3061     r305      1
    c3061     r306      1
    c3062     Obj       63
    c3062     r305      1
    c3062     r306      1
    c3063     Obj       64
    c3063     r305      1
    c3063     r306      1
    c3064     Obj       65
    c3064     r305      1
    c3064     r306      1
    c3065     Obj       66
    c3065     r306      1
    c3066     Obj       67
    c3066     r306      1
    c3067     Obj       68
    c3067     r306      1
    c3068     Obj       69
    c3068     r306      1
    c3069     Obj       70
    c3069     r306      1
    c3070     Obj       71
    c3070     r306      1
    c3070     r307      1
    c3071     Obj       72
    c3071     r306      1
    c3071     r307      1
    c3072     Obj       73
    c3072     r306      1
    c3072     r307      1
    c3073     Obj       74
    c3073     r306      1
    c3073     r307      1
    c3074     Obj       75
    c3074     r306      1
    c3074     r307      1
    c3075     Obj       76
    c3075     r307      1
    c3076     Obj       77
    c3076     r307      1
    c3077     Obj       78
    c3077     r307      1
    c3078     Obj       79
    c3078     r307      1
    c3079     Obj       80
    c3079     r307      1
    c3080     Obj       81
    c3080     r307      1
    c3080     r308      1
    c3081     Obj       82
    c3081     r307      1
    c3081     r308      1
    c3082     Obj       83
    c3082     r307      1
    c3082     r308      1
    c3083     Obj       84
    c3083     r307      1
    c3083     r308      1
    c3084     Obj       85
    c3084     r307      1
    c3084     r308      1
    c3085     Obj       86
    c3085     r308      1
    c3086     Obj       87
    c3086     r308      1
    c3087     Obj       88
    c3087     r308      1
    c3088     Obj       89
    c3088     r308      1
    c3089     Obj       90
    c3089     r308      1
    c3090     Obj       91
    c3090     r308      1
    c3090     r309      1
    c3091     Obj       92
    c3091     r308      1
    c3091     r309      1
    c3092     Obj       93
    c3092     r308      1
    c3092     r309      1
    c3093     Obj       94
    c3093     r308      1
    c3093     r309      1
    c3094     Obj       95
    c3094     r308      1
    c3094     r309      1
    c3095     Obj       96
    c3095     r309      1
    c3096     Obj       97
    c3096     r309      1
    c3097     Obj       98
    c3097     r309      1
    c3098     Obj       99
    c3098     r309      1
    c3099     Obj       100
    c3099     r309      1
    c3100     Obj       1
    c3100     r309      1
    c3100     r310      1
    c3101     Obj       2
    c3101     r309      1
    c3101     r310      1
    c3102     Obj       3
    c3102     r309      1
    c3102     r310      1
    c3103     Obj       4
    c3103     r309      1
    c3103     r310      1
    c3104     Obj       5
    c3104     r309      1
    c3104     r310      1
    c3105     Obj       6
    c3105     r310      1
    c3106     Obj       7
    c3106     r310      1
    c3107     Obj       8
    c3107     r310      1
    c3108     Obj       9
    c3108     r310      1
    c3109     Obj       10
    c3109     r310      1
    c3110     Obj       11
    c3110     r310      1
    c3110     r311      1
    c3111     Obj       12
    c3111     r310      1
    c3111     r311      1
    c3112     Obj       13
    c3112     r310      1
    c3112     r311      1
    c3113     Obj       14
    c3113     r310      1
    c3113     r311      1
    c3114     Obj       15
    c3114     r310      1
    c3114     r311      1
    c3115     Obj       16
    c3115     r311      1
    c3116     Obj       17
    c3116     r311      1
    c3117     Obj       18
    c3117     r311      1
    c3118     Obj       19
    c3118     r311      1
    c3119     Obj       20
    c3119     r311      1
    c3120     Obj       21
    c3120     r311      1
    c3120     r312      1
    c3121     Obj       22
    c3121     r311      1
    c3121     r312      1
    c3122     Obj       23
    c3122     r311      1
    c3122     r312      1
    c3123     Obj       24
    c3123     r311      1
    c3123     r312      1
    c3124     Obj       25
    c3124     r311      1
    c3124     r312      1
    c3125     Obj       26
    c3125     r312      1
    c3126     Obj       27
    c3126     r312      1
    c3127     Obj       28
    c3127     r312      1
    c3128     Obj       29
    c3128     r312      1
    c3129     Obj       30
    c3129     r312      1
    c3130     Obj       31
    c3130     r312      1
    c3130     r313      1
    c3131     Obj       32
    c3131     r312      1
    c3131     r313      1
    c3132     Obj       33
    c3132     r312      1
    c3132     r313      1
    c3133     Obj       34
    c3133     r312      1
    c3133     r313      1
    c3134     Obj       35
    c3134     r312      1
    c3134     r313      1
    c3135     Obj       36
    c3135     r313      1
    c3136     Obj       37
    c3136     r313      1
    c3137     Obj       38
    c3137     r313      1
    c3138     Obj       39
    c3138     r313      1
    c3139     Obj       40
    c3139     r313      1
    c3140     Obj       41
    c3140     r313      1
    c3140     r314      1
    c3141     Obj       42
    c3141     r313      1
    c3141     r314      1
    c3142     Obj       43
    c3142     r313      1
    c3142     r314      1
    c3143     Obj       44
    c3143     r313      1
    c3143     r314      1
    c3144     Obj       45
    c3144     r313      1
    c3144     r314      1
    c3145     Obj       46
    c3145     r314      1
    c3146     Obj       47
    c3146     r314      1
    c3147     Obj       48
    c3147     r314      1
    c3148     Obj       49
    c3148     r314      1
    c3149     Obj       50
    c3149     r314      1
    c3150     Obj       51
    c3150     r314      1
    c3150     r315      1
    c3151     Obj       52
    c3151     r314      1
    c3151     r315      1
    c3152     Obj       53
    c3152     r314      1
    c3152     r315      1
    c3153     Obj       54
    c3153     r314      1
    c3153     r315      1
    c3154     Obj       55
    c3154     r314      1
    c3154     r315      1
    c3155     Obj       56
    c3155     r315      1
    c3156     Obj       57
    c3156     r315      1
    c3157     Obj       58
    c3157     r315      1
    c3158     Obj       59
    c3158     r315      1
    c3159     Obj       60
    c3159     r315      1
    c3160     Obj       61
    c3160     r315      1
    c3160     r316      1
    c3161     Obj       62
    c3161     r315      1
    c3161     r316      1
    c3162     Obj       63
    c3162     r315      1
    c3162     r316      1
    c3163     Obj       64
    c3163     r315      1
    c3163     r316      1
    c3164     Obj       65
    c3164     r315      1
    c3164     r316      1
    c3165     Obj       66
    c3165     r316      1
    c3166     Obj       67
    c3166     r316      1
    c3167     Obj       68
    c3167     r316      1
    c3168     Obj       69
    c3168     r316      1
    c3169     Obj       70
    c3169     r316      1
    c3170     Obj       71
    c3170     r316      1
    c3170     r317      1
    c3171     Obj       72
    c3171     r316      1
    c3171     r317      1
    c3172     Obj       73
    c3172     r316      1
    c3172     r317      1
    c3173     Obj       74
    c3173     r316      1
    c3173     r317      1
    c3174     Obj       75
    c3174     r316      1
    c3174     r317      1
    c3175     Obj       76
    c3175     r317      1
    c3176     Obj       77
    c3176     r317      1
    c3177     Obj       78
    c3177     r317      1
    c3178     Obj       79
    c3178     r317      1
    c3179     Obj       80
    c3179     r317      1
    c3180     Obj       81
    c3180     r317      1
    c3180     r318      1
    c3181     Obj       82
    c3181     r317      1
    c3181     r318      1
    c3182     Obj       83
    c3182     r317      1
    c3182     r318      1
    c3183     Obj       84
    c3183     r317      1
    c3183     r318      1
    c3184     Obj       85
    c3184     r317      1
    c3184     r318      1
    c3185     Obj       86
    c3185     r318      1
    c3186     Obj       87
    c3186     r318      1
    c3187     Obj       88
    c3187     r318      1
    c3188     Obj       89
    c3188     r318      1
    c3189     Obj       90
    c3189     r318      1
    c3190     Obj       91
    c3190     r318      1
    c3190     r319      1
    c3191     Obj       92
    c3191     r318      1
    c3191     r319      1
    c3192     Obj       93
    c3192     r318      1
    c3192     r319      1
    c3193     Obj       94
    c3193     r318      1
    c3193     r319      1
    c3194     Obj       95
    c3194     r318      1
    c3194     r319      1
    c3195     Obj       96
    c3195     r319      1
    c3196     Obj       97
    c3196     r319      1
    c3197     Obj       98
    c3197     r319      1
    c3198     Obj       99
    c3198     r319      1
    c3199     Obj       100
    c3199     r319      1
    c3200     Obj       1
    c3200     r319      1
    c3200     r320      1
    c3201     Obj       2
    c3201     r319      1
    c3201     r320      1
    c3202     Obj       3
    c3202     r319      1
    c3202     r320      1
    c3203     Obj       4
    c3203     r319      1
    c3203     r320      1
    c3204     Obj       5
    c3204     r319      1
    c3204     r320      1
    c3205     Obj       6
    c3205     r320      1
    c3206     Obj       7
    c3206     r320      1
    c3207     Obj       8
    c3207     r320      1
    c3208     Obj       9
    c3208     r320      1
    c3209     Obj       10
    c3209     r320      1
    c3210     Obj       11
    c3210     r320      1
    c3210     r321      1
    c3211     Obj       12
    c3211     r320      1
    c3211     r321      1
    c3212     Obj       13
    c3212     r320      1
    c3212     r321      1
    c3213     Obj       14
    c3213     r320      1
    c3213     r321      1
    c3214     Obj       15
    c3214     r320      1
    c3214     r321      1
    c3215     Obj       16
    c3215     r321      1
    c3216     Obj       17
    c3216     r321      1
    c3217     Obj       18
    c3217     r321      1
    c3218     Obj       19
    c3218     r321      1
    c3219     Obj       20
    c3219     r321      1
    c3220     Obj       21
    c3220     r321      1
    c3220     r322      1
    c3221     Obj       22
    c3221     r321      1
    c3221     r322      1
    c3222     Obj       23
    c3222     r321      1
    c3222     r322      1
    c3223     Obj       24
    c3223     r321      1
    c3223     r322      1
    c3224     Obj       25
    c3224     r321      1
    c3224     r322      1
    c3225     Obj       26
    c3225     r322      1
    c3226     Obj       27
    c3226     r322      1
    c3227     Obj       28
    c3227     r322      1
    c3228     Obj       29
    c3228     r322      1
    c3229     Obj       30
    c3229     r322      1
    c3230     Obj       31
    c3230     r322      1
    c3230     r323      1
    c3231     Obj       32
    c3231     r322      1
    c3231     r323      1
    c3232     Obj       33
    c3232     r322      1
    c3232     r323      1
    c3233     Obj       34
    c3233     r322      1
    c3233     r323      1
    c3234     Obj       35
    c3234     r322      1
    c3234     r323      1
    c3235     Obj       36
    c3235     r323      1
    c3236     Obj       37
    c3236     r323      1
    c3237     Obj       38
    c3237     r323      1
    c3238     Obj       39
    c3238     r323      1
    c3239     Obj       40
    c3239     r323      1
    c3240     Obj       41
    c3240     r323      1
    c3240     r324      1
    c3241     Obj       42
    c3241     r323      1
    c3241     r324      1
    c3242     Obj       43
    c3242     r323      1
    c3242     r324      1
    c3243     Obj       44
    c3243     r323      1
    c3243     r324      1
    c3244     Obj       45
    c3244     r323      1
    c3244     r324      1
    c3245     Obj       46
    c3245     r324      1
    c3246     Obj       47
    c3246     r324      1
    c3247     Obj       48
    c3247     r324      1
    c3248     Obj       49
    c3248     r324      1
    c3249     Obj       50
    c3249     r324      1
    c3250     Obj       51
    c3250     r324      1
    c3250     r325      1
    c3251     Obj       52
    c3251     r324      1
    c3251     r325      1
    c3252     Obj       53
    c3252     r324      1
    c3252     r325      1
    c3253     Obj       54
    c3253     r324      1
    c3253     r325      1
    c3254     Obj       55
    c3254     r324      1
    c3254     r325      1
    c3255     Obj       56
    c3255     r325      1
    c3256     Obj       57
    c3256     r325      1
    c3257     Obj       58
    c3257     r325      1
    c3258     Obj       59
    c3258     r325      1
    c3259     Obj       60
    c3259     r325      1
    c3260     Obj       61
    c3260     r325      1
    c3260     r326      1
    c3261     Obj       62
    c3261     r325      1
    c3261     r326      1
    c3262     Obj       63
    c3262     r325      1
    c3262     r326      1
    c3263     Obj       64
    c3263     r325      1
    c3263     r326      1
    c3264     Obj       65
    c3264     r325      1
    c3264     r326      1
    c3265     Obj       66
    c3265     r326      1
    c3266     Obj       67
    c3266     r326      1
    c3267     Obj       68
    c3267     r326      1
    c3268     Obj       69
    c3268     r326      1
    c3269     Obj       70
    c3269     r326      1
    c3270     Obj       71
    c3270     r326      1
    c3270     r327      1
    c3271     Obj       72
    c3271     r326      1
    c3271     r327      1
    c3272     Obj       73
    c3272     r326      1
    c3272     r327      1
    c3273     Obj       74
    c3273     r326      1
    c3273     r327      1
    c3274     Obj       75
    c3274     r326      1
    c3274     r327      1
    c3275     Obj       76
    c3275     r327      1
    c3276     Obj       77
    c3276     r327      1
    c3277     Obj       78
    c3277     r327      1
    c3278     Obj       79
    c3278     r327      1
    c3279     Obj       80
    c3279     r327      1
    c3280     Obj       81
    c3280     r327      1
    c3280     r328      1
    c3281     Obj       82
    c3281     r327      1
    c3281     r328      1
    c3282     Obj       83
    c3282     r327      1
    c3282     r328      1
    c3283     Obj       84
    c3283     r327      1
    c3283     r328      1
    c3284     Obj       85
    c3284     r327      1
    c3284     r328      1
    c3285     Obj       86
    c3285     r328      1
    c3286     Obj       87
    c3286     r328      1
    c3287     Obj       88
    c3287     r328      1
    c3288     Obj       89
    c3288     r328      1
    c3289     Obj       90
    c3289     r328      1
    c3290     Obj       91
    c3290     r328      1
    c3290     r329      1
    c3291     Obj       92
    c3291     r328      1
    c3291     r329      1
    c3292     Obj       93
    c3292     r328      1
    c3292     r329      1
    c3293     Obj       94
    c3293     r328      1
    c3293     r329      1
    c3294     Obj       95
    c3294     r328      1
    c3294     r329      1
    c3295     Obj       96
    c3295     r329      1
    c3296     Obj       97
    c3296     r329      1
    c3297     Obj       98
    c3297     r329      1
    c3298     Obj       99
    c3298     r329      1
    c3299     Obj       100
    c3299     r329      1
    c3300     Obj       1
    c3300     r329      1
    c3300     r330      1
    c3301     Obj       2
    c3301     r329      1
    c3301     r330      1
    c3302     Obj       3
    c3302     r329      1
    c3302     r330      1
    c3303     Obj       4
    c3303     r329      1
    c3303     r330      1
    c3304     Obj       5
    c3304     r329      1
    c3304     r330      1
    c3305     Obj       6
    c3305     r330      1
    c3306     Obj       7
    c3306     r330      1
    c3307     Obj       8
    c3307     r330      1
    c3308     Obj       9
    c3308     r330      1
    c3309     Obj       10
    c3309     r330      1
    c3310     Obj       11
    c3310     r330      1
    c3310     r331      1
    c3311     Obj       12
    c3311     r330      1
    c3311     r331      1
    c3312     Obj       13
    c3312     r330      1
    c3312     r331      1
    c3313     Obj       14
    c3313     r330      1
    c3313     r331      1
    c3314     Obj       15
    c3314     r330      1
    c3314     r331      1
    c3315     Obj       16
    c3315     r331      1
    c3316     Obj       17
    c3316     r331      1
    c3317     Obj       18
    c3317     r331      1
    c3318     Obj       19
    c3318     r331      1
    c3319     Obj       20
    c3319     r331      1
    c3320     Obj       21
    c3320     r331      1
    c3320     r332      1
    c3321     Obj       22
    c3321     r331      1
    c3321     r332      1
    c3322     Obj       23
    c3322     r331      1
    c3322     r332      1
    c3323     Obj       24
    c3323     r331      1
    c3323     r332      1
    c3324     Obj       25
    c3324     r331      1
    c3324     r332      1
    c3325     Obj       26
    c3325     r332      1
    c3326     Obj       27
    c3326     r332      1
    c3327     Obj       28
    c3327     r332      1
    c3328     Obj       29
    c3328     r332      1
    c3329     Obj       30
    c3329     r332      1
    c3330     Obj       31
    c3330     r332      1
    c3330     r333      1
    c3331     Obj       32
    c3331     r332      1
    c3331     r333      1
    c3332     Obj       33
    c3332     r332      1
    c3332     r333      1
    c3333     Obj       34
    c3333     r332      1
    c3333     r333      1
    c3334     Obj       35
    c3334     r332      1
    c3334     r333      1
    c3335     Obj       36
    c3335     r333      1
    c3336     Obj       37
    c3336     r333      1
    c3337     Obj       38
    c3337     r333      1
    c3338     Obj       39
    c3338     r333      1
    c3339     Obj       40
    c3339     r333      1
    c3340     Obj       41
    c3340     r333      1
    c3340     r334      1
    c3341     Obj       42
    c3341     r333      1
    c3341     r334      1
    c3342     Obj       43
    c3342     r333      1
    c3342     r334      1
    c3343     Obj       44
    c3343     r333      1
    c3343     r334      1
    c3344     Obj       45
    c3344     r333      1
    c3344     r334      1
    c3345     Obj       46
    c3345     r334      1
    c3346     Obj       47
    c3346     r334      1
    c3347     Obj       48
    c3347     r334      1
    c3348     Obj       49
    c3348     r334      1
    c3349     Obj       50
    c3349     r334      1
    c3350     Obj       51
    c3350     r334      1
    c3350     r335      1
    c3351     Obj       52
    c3351     r334      1
    c3351     r335      1
    c3352     Obj       53
    c3352     r334      1
    c3352     r335      1
    c3353     Obj       54
    c3353     r334      1
    c3353     r335      1
    c3354     Obj       55
    c3354     r334      1
    c3354     r335      1
    c3355     Obj       56
    c3355     r335      1
    c3356     Obj       57
    c3356     r335      1
    c3357     Obj       58
    c3357     r335      1
    c3358     Obj       59
    c3358     r335      1
    c3359     Obj       60
    c3359     r335      1
    c3360     Obj       61
    c3360     r335      1
    c3360     r336      1
    c3361     Obj       62
    c3361     r335      1
    c3361     r336      1
    c3362     Obj       63
    c3362     r335      1
    c3362     r336      1
    c3363     Obj       64
    c3363     r335      1
    c3363     r336      1
    c3364     Obj       65
    c3364     r335      1
    c3364     r336      1
    c3365     Obj       66
    c3365     r336      1
    c3366     Obj       67
    c3366     r336      1
    c3367     Obj       68
    c3367     r336      1
    c3368     Obj       69
    c3368     r336      1
    c3369     Obj       70
    c3369     r336      1
    c3370     Obj       71
    c3370     r336      1
    c3370     r337      1
    c3371     Obj       72
    c3371     r336      1
    c3371     r337      1
    c3372     Obj       73
    c3372     r336      1
    c3372     r337      1
    c3373     Obj       74
    c3373     r336      1
    c3373     r337      1
    c3374     Obj       75
    c3374     r336      1
    c3374     r337      1
    c3375     Obj       76
    c3375     r337      1
    c3376     Obj       77
    c3376     r337      1
    c3377     Obj       78
    c3377     r337      1
    c3378     Obj       79
    c3378     r337      1
    c3379     Obj       80
    c3379     r337      1
    c3380     Obj       81
    c3380     r337      1
    c3380     r338      1
    c3381     Obj       82
    c3381     r337      1
    c3381     r338      1
    c3382     Obj       83
    c3382     r337      1
    c3382     r338      1
    c3383     Obj       84
    c3383     r337      1
    c3383     r338      1
    c3384     Obj       85
    c3384     r337      1
    c3384     r338      1
    c3385     Obj       86
    c3385     r338      1
    c3386     Obj       87
    c3386     r338      1
    c3387     Obj       88
    c3387     r338      1
    c3388     Obj       89
    c3388     r338      1
    c3389     Obj       90
    c3389     r338      1
    c3390     Obj       91
    c3390     r338      1
    c3390     r339      1
    c3391     Obj       92
    c3391     r338      1
    c3391     r339      1
    c3392     Obj       93
    c3392     r338      1
    c3392     r339      1
    c3393     Obj       94
    c3393     r338      1
    c3393     r339      1
    c3394     Obj       95
    c3394     r338      1
    c3394     r339      1
    c3395     Obj       96
    c3395     r339      1
    c3396     Obj       97
    c3396     r339      1
    c3397     Obj       98
    c3397     r339      1
    c3398     Obj       99
    c3398     r339      1
    c3399     Obj       100
    c3399     r339      1
    c3400     Obj       1
    c3400     r339      1
    c3400     r340      1
    c3401     Obj       2
    c3401     r339      1
    c3401     r340      1
    c3402     Obj       3
    c3402     r339      1
    c3402     r340      1
    c3403     Obj       4
    c3403     r339      1
    c3403     r340      1
    c3404     Obj       5
    c3404     r339      1
    c3404     r340      1
    c3405     Obj       6
    c3405     r340      1
    c3406     Obj       7
    c3406     r340      1
    c3407     Obj       8
    c3407     r340      1
    c3408     Obj       9
    c3408     r340      1
    c3409     Obj       10
    c3409     r340      1
    c3410     Obj       11
    c3410     r340      1
    c3410     r341      1
    c3411     Obj       12
    c3411     r340      1
    c3411     r341      1
    c3412     Obj       13
    c3412     r340      1
    c3412     r341      1
    c3413     Obj       14
    c3413     r340      1
    c3413     r341      1
    c3414     Obj       15
    c3414     r340      1
    c3414     r341      1
    c3415     Obj       16
    c3415     r341      1
    c3416     Obj       17
    c3416     r341      1
    c3417     Obj       18
    c3417     r341      1
    c3418     Obj       19
    c3418     r341      1
    c3419     Obj       20
    c3419     r341      1
    c3420     Obj       21
    c3420     r341      1
    c3420     r342      1
    c3421     Obj       22
    c3421     r341      1
    c3421     r342      1
    c3422     Obj       23
    c3422     r341      1
    c3422     r342      1
    c3423     Obj       24
    c3423     r341      1
    c3423     r342      1
    c3424     Obj       25
    c3424     r341      1
    c3424     r342      1
    c3425     Obj       26
    c3425     r342      1
    c3426     Obj       27
    c3426     r342      1
    c3427     Obj       28
    c3427     r342      1
    c3428     Obj       29
    c3428     r342      1
    c3429     Obj       30
    c3429     r342      1
    c3430     Obj       31
    c3430     r342      1
    c3430     r343      1
    c3431     Obj       32
    c3431     r342      1
    c3431     r343      1
    c3432     Obj       33
    c3432     r342      1
    c3432     r343      1
    c3433     Obj       34
    c3433     r342      1
    c3433     r343      1
    c3434     Obj       35
    c3434     r342      1
    c3434     r343      1
    c3435     Obj       36
    c3435     r343      1
    c3436     Obj       37
    c3436     r343      1
    c3437     Obj       38
    c3437     r343      1
    c3438     Obj       39
    c3438     r343      1
    c3439     Obj       40
    c3439     r343      1
    c3440     Obj       41
    c3440     r343      1
    c3440     r344      1
    c3441     Obj       42
    c3441     r343      1
    c3441     r344      1
    c3442     Obj       43
    c3442     r343      1
    c3442     r344      1
    c3443     Obj       44
    c3443     r343      1
    c3443     r344      1
    c3444     Obj       45
    c3444     r343      1
    c3444     r344      1
    c3445     Obj       46
    c3445     r344      1
    c3446     Obj       47
    c3446     r344      1
    c3447     Obj       48
    c3447     r344      1
    c3448     Obj       49
    c3448     r344      1
    c3449     Obj       50
    c3449     r344      1
    c3450     Obj       51
    c3450     r344      1
    c3450     r345      1
    c3451     Obj       52
    c3451     r344      1
    c3451     r345      1
    c3452     Obj       53
    c3452     r344      1
    c3452     r345      1
    c3453     Obj       54
    c3453     r344      1
    c3453     r345      1
    c3454     Obj       55
    c3454     r344      1
    c3454     r345      1
    c3455     Obj       56
    c3455     r345      1
    c3456     Obj       57
    c3456     r345      1
    c3457     Obj       58
    c3457     r345      1
    c3458     Obj       59
    c3458     r345      1
    c3459     Obj       60
    c3459     r345      1
    c3460     Obj       61
    c3460     r345      1
    c3460     r346      1
    c3461     Obj       62
    c3461     r345      1
    c3461     r346      1
    c3462     Obj       63
    c3462     r345      1
    c3462     r346      1
    c3463     Obj       64
    c3463     r345      1
    c3463     r346      1
    c3464     Obj       65
    c3464     r345      1
    c3464     r346      1
    c3465     Obj       66
    c3465     r346      1
    c3466     Obj       67
    c3466     r346      1
    c3467     Obj       68
    c3467     r346      1
    c3468     Obj       69
    c3468     r346      1
    c3469     Obj       70
    c3469     r346      1
    c3470     Obj       71
    c3470     r346      1
    c3470     r347      1
    c3471     Obj       72
    c3471     r346      1
    c3471     r347      1
    c3472     Obj       73
    c3472     r346      1
    c3472     r347      1
    c3473     Obj       74
    c3473     r346      1
    c3473     r347      1
    c3474     Obj       75
    c3474     r346      1
    c3474     r347      1
    c3475     Obj       76
    c3475     r347      1
    c3476     Obj       77
    c3476     r347      1
    c3477     Obj       78
    c3477     r347      1
    c3478     Obj       79
    c3478     r347      1
    c3479     Obj       80
    c3479     r347      1
    c3480     Obj       81
    c3480     r347      1
    c3480     r348      1
    c3481     Obj       82
    c3481     r347      1
    c3481     r348      1
    c3482     Obj       83
    c3482     r347      1
    c3482     r348      1
    c3483     Obj       84
    c3483     r347      1
    c3483     r348      1
    c3484     Obj       85
    c3484     r347      1
    c3484     r348      1
    c3485     Obj       86
    c3485     r348      1
    c3486     Obj       87
    c3486     r348      1
    c3487     Obj       88
    c3487     r348      1
    c3488     Obj       89
    c3488     r348      1
    c3489     Obj       90
    c3489     r348      1
    c3490     Obj       91
    c3490     r348      1
    c3490     r349      1
    c3491     Obj       92
    c3491     r348      1
    c3491     r349      1
    c3492     Obj       93
    c3492     r348      1
    c3492     r349      1
    c3493     Obj       94
    c3493     r348      1
    c3493     r349      1
    c3494     Obj       95
    c3494     r348      1
    c3494     r349      1
    c3495     Obj       96
    c3495     r349      1
    c3496     Obj       97
    c3496     r349      1
    c3497     Obj       98
    c3497     r349      1
    c3498     Obj       99
    c3498     r349      1
    c3499     Obj       100
    c3499     r349      1
    c3500     Obj       1
    c3500     r349      1
    c3500     r350      1
    c3501     Obj       2
    c3501     r349      1
    c3501     r350      1
    c3502     Obj       3
    c3502     r349      1
    c3502     r350      1
    c3503     Obj       4
    c3503     r349      1
    c3503     r350      1
    c3504     Obj       5
    c3504     r349      1
    c3504     r350      1
    c3505     Obj       6
    c3505     r350      1
    c3506     Obj       7
    c3506     r350      1
    c3507     Obj       8
    c3507     r350      1
    c3508     Obj       9
    c3508     r350      1
    c3509     Obj       10
    c3509     r350      1
    c3510     Obj       11
    c3510     r350      1
    c3510     r351      1
    c3511     Obj       12
    c3511     r350      1
    c3511     r351      1
    c3512     Obj       13
    c3512     r350      1
    c3512     r351      1
    c3513     Obj       14
    c3513     r350      1
    c3513     r351      1
    c3514     Obj       15
    c3514     r350      1
    c3514     r351      1
    c3515     Obj       16
    c3515     r351      1
    c3516     Obj       17
    c3516     r351      1
    c3517     Obj       18
    c3517     r351      1
    c3518     Obj       19
    c3518     r351      1
    c3519     Obj       20
    c3519     r351      1
    c3520     Obj       21
    c3520     r351      1
    c3520     r352      1
    c3521     Obj       22
    c3521     r351      1
    c3521     r352      1
    c3522     Obj       23
    c3522     r351      1
    c3522     r352      1
    c3523     Obj       24
    c3523     r351      1
    c3523     r352      1
    c3524     Obj       25
    c3524     r351      1
    c3524     r352      1
    c3525     Obj       26
    c3525     r352      1
    c3526     Obj       27
    c3526     r352      1
    c3527     Obj       28
    c3527     r352      1
    c3528     Obj       29
    c3528     r352      1
    c3529     Obj       30
    c3529     r352      1
    c3530     Obj       31
    c3530     r352      1
    c3530     r353      1
    c3531     Obj       32
    c3531     r352      1
    c3531     r353      1
    c3532     Obj       33
    c3532     r352      1
    c3532     r353      1
    c3533     Obj       34
    c3533     r352      1
    c3533     r353      1
    c3534     Obj       35
    c3534     r352      1
    c3534     r353      1
    c3535     Obj       36
    c3535     r353      1
    c3536     Obj       37
    c3536     r353      1
    c3537     Obj       38
    c3537     r353      1
    c3538     Obj       39
    c3538     r353      1
    c3539     Obj       40
    c3539     r353      1
    c3540     Obj       41
    c3540     r353      1
    c3540     r354      1
    c3541     Obj       42
    c3541     r353      1
    c3541     r354      1
    c3542     Obj       43
    c3542     r353      1
    c3542     r354      1
    c3543     Obj       44
    c3543     r353      1
    c3543     r354      1
    c3544     Obj       45
    c3544     r353      1
    c3544     r354      1
    c3545     Obj       46
    c3545     r354      1
    c3546     Obj       47
    c3546     r354      1
    c3547     Obj       48
    c3547     r354      1
    c3548     Obj       49
    c3548     r354      1
    c3549     Obj       50
    c3549     r354      1
    c3550     Obj       51
    c3550     r354      1
    c3550     r355      1
    c3551     Obj       52
    c3551     r354      1
    c3551     r355      1
    c3552     Obj       53
    c3552     r354      1
    c3552     r355      1
    c3553     Obj       54
    c3553     r354      1
    c3553     r355      1
    c3554     Obj       55
    c3554     r354      1
    c3554     r355      1
    c3555     Obj       56
    c3555     r355      1
    c3556     Obj       57
    c3556     r355      1
    c3557     Obj       58
    c3557     r355      1
    c3558     Obj       59
    c3558     r355      1
    c3559     Obj       60
    c3559     r355      1
    c3560     Obj       61
    c3560     r355      1
    c3560     r356      1
    c3561     Obj       62
    c3561     r355      1
    c3561     r356      1
    c3562     Obj       63
    c3562     r355      1
    c3562     r356      1
    c3563     Obj       64
    c3563     r355      1
    c3563     r356      1
    c3564     Obj       65
    c3564     r355      1
    c3564     r356      1
    c3565     Obj       66
    c3565     r356      1
    c3566     Obj       67
    c3566     r356      1
    c3567     Obj       68
    c3567     r356      1
    c3568     Obj       69
    c3568     r356      1
    c3569     Obj       70
    c3569     r356      1
    c3570     Obj       71
    c3570     r356      1
    c3570     r357      1
    c3571     Obj       72
    c3571     r356      1
    c3571     r357      1
    c3572     Obj       73
    c3572     r356      1
    c3572     r357      1
    c3573     Obj       74
    c3573     r356      1
    c3573     r357      1
    c3574     Obj       75
    c3574     r356      1
    c3574     r357      1
    c3575     Obj       76
    c3575     r357      1
    c3576     Obj       77
    c3576     r357      1
    c3577     Obj       78
    c3577     r357      1
    c3578     Obj       79
    c3578     r357      1
    c3579     Obj       80
    c3579     r357      1
    c3580     Obj       81
    c3580     r357      1
    c3580     r358      1
    c3581     Obj       82
    c3581     r357      1
    c3581     r358      1
    c3582     Obj       83
    c3582     r357      1
    c3582     r358      1
    c3583     Obj       84
    c3583     r357      1
    c3583     r358      1
    c3584     Obj       85
    c3584     r357      1
    c3584     r358      1
    c3585     Obj       86
    c3585     r358      1
    c3586     Obj       87
    c3586     r358      1
    c3587     Obj       88
    c3587     r358      1
    c3588     Obj       89
    c3588     r358      1
    c3589     Obj       90
    c3589     r358      1
    c3590     Obj       91
    c3590     r358      1
    c3590     r359      1
    c3591     Obj       92
    c3591     r358      1
    c3591     r359      1
    c3592     Obj       93
    c3592     r358      1
    c3592     r359      1
    c3593     Obj       94
    c3593     r358      1
    c3593     r359      1
    c3594     Obj       95
    c3594     r358      1
    c3594     r359      1
    c3595     Obj       96
    c3595     r359      1
    c3596     Obj       97
    c3596     r359      1
    c3597     Obj       98
    c3597     r359      1
    c3598     Obj       99
    c3598     r359      1
    c3599     Obj       100
    c3599     r359      1
    c3600     Obj       1
    c3600     r359      1
    c3600     r360      1
    c3601     Obj       2
    c3601     r359      1
    c3601     r360      1
    c3602     Obj       3
    c3602     r359      1
    c3602     r360      1
    c3603     Obj       4
    c3603     r359      1
    c3603     r360      1
    c3604     Obj       5
    c3604     r359      1
    c3604     r360      1
    c3605     Obj       6
    c3605     r360      1
    c3606     Obj       7
    c3606     r360      1
    c3607     Obj       8
    c3607     r360      1
    c3608     Obj       9
    c3608     r360      1
    c3609     Obj       10
    c3609     r360      1
    c3610     Obj       11
    c3610     r360      1
    c3610     r361      1
    c3611     Obj       12
    c3611     r360      1
    c3611     r361      1
    c3612     Obj       13
    c3612     r360      1
    c3612     r361      1
    c3613     Obj       14
    c3613     r360      1
    c3613     r361      1
    c3614     Obj       15
    c3614     r360      1
    c3614     r361      1
    c3615     Obj       16
    c3615     r361      1
    c3616     Obj       17
    c3616     r361      1
    c3617     Obj       18
    c3617     r361      1
    c3618     Obj       19
    c3618     r361      1
    c3619     Obj       20
    c3619     r361      1
    c3620     Obj       21
    c3620     r361      1
    c3620     r362      1
    c3621     Obj       22
    c3621     r361      1
    c3621     r362      1
    c3622     Obj       23
    c3622     r361      1
    c3622     r362      1
    c3623     Obj       24
    c3623     r361      1
    c3623     r362      1
    c3624     Obj       25
    c3624     r361      1
    c3624     r362      1
    c3625     Obj       26
    c3625     r362      1
    c3626     Obj       27
    c3626     r362      1
    c3627     Obj       28
    c3627     r362      1
    c3628     Obj       29
    c3628     r362      1
    c3629     Obj       30
    c3629     r362      1
    c3630     Obj       31
    c3630     r362      1
    c3630     r363      1
    c3631     Obj       32
    c3631     r362      1
    c3631     r363      1
    c3632     Obj       33
    c3632     r362      1
    c3632     r363      1
    c3633     Obj       34
    c3633     r362      1
    c3633     r363      1
    c3634     Obj       35
    c3634     r362      1
    c3634     r363      1
    c3635     Obj       36
    c3635     r363      1
    c3636     Obj       37
    c3636     r363      1
    c3637     Obj       38
    c3637     r363      1
    c3638     Obj       39
    c3638     r363      1
    c3639     Obj       40
    c3639     r363      1
    c3640     Obj       41
    c3640     r363      1
    c3640     r364      1
    c3641     Obj       42
    c3641     r363      1
    c3641     r364      1
    c3642     Obj       43
    c3642     r363      1
    c3642     r364      1
    c3643     Obj       44
    c3643     r363      1
    c3643     r364      1
    c3644     Obj       45
    c3644     r363      1
    c3644     r364      1
    c3645     Obj       46
    c3645     r364      1
    c3646     Obj       47
    c3646     r364      1
    c3647     Obj       48
    c3647     r364      1
    c3648     Obj       49
    c3648     r364      1
    c3649     Obj       50
    c3649     r364      1
    c3650     Obj       51
    c3650     r364      1
    c3650     r365      1
    c3651     Obj       52
    c3651     r364      1
    c3651     r365      1
    c3652     Obj       53
    c3652     r364      1
    c3652     r365      1
    c3653     Obj       54
    c3653     r364      1
    c3653     r365      1
    c3654     Obj       55
    c3654     r364      1
    c3654     r365      1
    c3655     Obj       56
    c3655     r365      1
    c3656     Obj       57
    c3656     r365      1
    c3657     Obj       58
    c3657     r365      1
    c3658     Obj       59
    c3658     r365      1
    c3659     Obj       60
    c3659     r365      1
    c3660     Obj       61
    c3660     r365      1
    c3660     r366      1
    c3661     Obj       62
    c3661     r365      1
    c3661     r366      1
    c3662     Obj       63
    c3662     r365      1
    c3662     r366      1
    c3663     Obj       64
    c3663     r365      1
    c3663     r366      1
    c3664     Obj       65
    c3664     r365      1
    c3664     r366      1
    c3665     Obj       66
    c3665     r366      1
    c3666     Obj       67
    c3666     r366      1
    c3667     Obj       68
    c3667     r366      1
    c3668     Obj       69
    c3668     r366      1
    c3669     Obj       70
    c3669     r366      1
    c3670     Obj       71
    c3670     r366      1
    c3670     r367      1
    c3671     Obj       72
    c3671     r366      1
    c3671     r367      1
    c3672     Obj       73
    c3672     r366      1
    c3672     r367      1
    c3673     Obj       74
    c3673     r366      1
    c3673     r367      1
    c3674     Obj       75
    c3674     r366      1
    c3674     r367      1
    c3675     Obj       76
    c3675     r367      1
    c3676     Obj       77
    c3676     r367      1
    c3677     Obj       78
    c3677     r367      1
    c3678     Obj       79
    c3678     r367      1
    c3679     Obj       80
    c3679     r367      1
    c3680     Obj       81
    c3680     r367      1
    c3680     r368      1
    c3681     Obj       82
    c3681     r367      1
    c3681     r368      1
    c3682     Obj       83
    c3682     r367      1
    c3682     r368      1
    c3683     Obj       84
    c3683     r367      1
    c3683     r368      1
    c3684     Obj       85
    c3684     r367      1
    c3684     r368      1
    c3685     Obj       86
    c3685     r368      1
    c3686     Obj       87
    c3686     r368      1
    c3687     Obj       88
    c3687     r368      1
    c3688     Obj       89
    c3688     r368      1
    c3689     Obj       90
    c3689     r368      1
    c3690     Obj       91
    c3690     r368      1
    c3690     r369      1
    c3691     Obj       92
    c3691     r368      1
    c3691     r369      1
    c3692     Obj       93
    c3692     r368      1
    c3692     r369      1
    c3693     Obj       94
    c3693     r368      1
    c3693     r369      1
    c3694     Obj       95
    c3694     r368      1
    c3694     r369      1
    c3695     Obj       96
    c3695     r369      1
    c3696     Obj       97
    c3696     r369      1
    c3697     Obj       98
    c3697     r369      1
    c3698     Obj       99
    c3698     r369      1
    c3699     Obj       100
    c3699     r369      1
    c3700     Obj       1
    c3700     r369      1
    c3700     r370      1
    c3701     Obj       2
    c3701     r369      1
    c3701     r370      1
    c3702     Obj       3
    c3702     r369      1
    c3702     r370      1
    c3703     Obj       4
    c3703     r369      1
    c3703     r370      1
    c3704     Obj       5
    c3704     r369      1
    c3704     r370      1
    c3705     Obj       6
    c3705     r370      1
    c3706     Obj       7
    c3706     r370      1
    c3707     Obj       8
    c3707     r370      1
    c3708     Obj       9
    c3708     r370      1
    c3709     Obj       10
    c3709     r370      1
    c3710     Obj       11
    c3710     r370      1
    c3710     r371      1
    c3711     Obj       12
    c3711     r370      1
    c3711     r371      1
    c3712     Obj       13
    c3712     r370      1
    c3712     r371      1
    c3713     Obj       14
    c3713     r370      1
    c3713     r371      1
    c3714     Obj       15
    c3714     r370      1
    c3714     r371      1
    c3715     Obj       16
    c3715     r371      1
    c3716     Obj       17
    c3716     r371      1
    c3717     Obj       18
    c3717     r371      1
    c3718     Obj       19
    c3718     r371      1
    c3719     Obj       20
    c3719     r371      1
    c3720     Obj       21
    c3720     r371      1
    c3720     r372      1
    c3721     Obj       22
    c3721     r371      1
    c3721     r372      1
    c3722     Obj       23
    c3722     r371      1
    c3722     r372      1
    c3723     Obj       24
    c3723     r371      1
    c3723     r372      1
    c3724     Obj       25
    c3724     r371      1
    c3724     r372      1
    c3725     Obj       26
    c3725     r372      1
    c3726     Obj       27
    c3726     r372      1
    c3727     Obj       28
    c3727     r372      1
    c3728     Obj       29
    c3728     r372      1
    c3729     Obj       30
    c3729     r372      1
    c3730     Obj       31
    c3730     r372      1
    c3730     r373      1
    c3731     Obj       32
    c3731     r372      1
    c3731     r373      1
    c3732     Obj       33
    c3732     r372      1
    c3732     r373      1
    c3733     Obj       34
    c3733     r372      1
    c3733     r373      1
    c3734     Obj       35
    c3734     r372      1
    c3734     r373      1
    c3735     Obj       36
    c3735     r373      1
    c3736     Obj       37
    c3736     r373      1
    c3737     Obj       38
    c3737     r373      1
    c3738     Obj       39
    c3738     r373      1
    c3739     Obj       40
    c3739     r373      1
    c3740     Obj       41
    c3740     r373      1
    c3740     r374      1
    c3741     Obj       42
    c3741     r373      1
    c3741     r374      1
    c3742     Obj       43
    c3742     r373      1
    c3742     r374      1
    c3743     Obj       44
    c3743     r373      1
    c3743     r374      1
    c3744     Obj       45
    c3744     r373      1
    c3744     r374      1
    c3745     Obj       46
    c3745     r374      1
    c3746     Obj       47
    c3746     r374      1
    c3747     Obj       48
    c3747     r374      1
    c3748     Obj       49
    c3748     r374      1
    c3749     Obj       50
    c3749     r374      1
    c3750     Obj       51
    c3750     r374      1
    c3750     r375      1
    c3751     Obj       52
    c3751     r374      1
    c3751     r375      1
    c3752     Obj       53
    c3752     r374      1
    c3752     r375      1
    c3753     Obj       54
    c3753     r374      1
    c3753     r375      1
    c3754     Obj       55
    c3754     r374      1
    c3754     r375      1
    c3755     Obj       56
    c3755     r375      1
    c3756     Obj       57
    c3756     r375      1
    c3757     Obj       58
    c3757     r375      1
    c3758     Obj       59
    c3758     r375      1
    c3759     Obj       60
    c3759     r375      1
    c3760     Obj       61
    c3760     r375      1
    c3760     r376      1
    c3761     Obj       62
    c3761     r375      1
    c3761     r376      1
    c3762     Obj       63
    c3762     r375      1
    c3762     r376      1
    c3763     Obj       64
    c3763     r375      1
    c3763     r376      1
    c3764     Obj       65
    c3764     r375      1
    c3764     r376      1
    c3765     Obj       66
    c3765     r376      1
    c3766     Obj       67
    c3766     r376      1
    c3767     Obj       68
    c3767     r376      1
    c3768     Obj       69
    c3768     r376      1
    c3769     Obj       70
    c3769     r376      1
    c3770     Obj       71
    c3770     r376      1
    c3770     r377      1
    c3771     Obj       72
    c3771     r376      1
    c3771     r377      1
    c3772     Obj       73
    c3772     r376      1
    c3772     r377      1
    c3773     Obj       74
    c3773     r376      1
    c3773     r377      1
    c3774     Obj       75
    c3774     r376      1
    c3774     r377      1
    c3775     Obj       76
    c3775     r377      1
    c3776     Obj       77
    c3776     r377      1
    c3777     Obj       78
    c3777     r377      1
    c3778     Obj       79
    c3778     r377      1
    c3779     Obj       80
    c3779     r377      1
    c3780     Obj       81
    c3780     r377      1
    c3780     r378      1
    c3781     Obj       82
    c3781     r377      1
    c3781     r378      1
    c3782     Obj       83
    c3782     r377      1
    c3782     r378      1
    c3783     Obj       84
    c3783     r377      1
    c3783     r378      1
    c3784     Obj       85
    c3784     r377      1
    c3784     r378      1
    c3785     Obj       86
    c3785     r378      1
    c3786     Obj       87
    c3786     r378      1
    c3787     Obj       88
    c3787     r378      1
    c3788     Obj       89
    c3788     r378      1
    c3789     Obj       90
    c3789     r378      1
    c3790     Obj       91
    c3790     r378      1
    c3790     r379      1
    c3791     Obj       92
    c3791     r378      1
    c3791     r379      1
    c3792     Obj       93
    c3792     r378      1
    c3792     r379      1
    c3793     Obj       94
    c3793     r378      1
    c3793     r379      1
    c3794     Obj       95
    c3794     r378      1
    c3794     r379      1
    c3795     Obj       96
    c3795     r379      1
    c3796     Obj       97
    c3796     r379      1
    c3797     Obj       98
    c3797     r379      1
    c3798     Obj       99
    c3798     r379      1
    c3799     Obj       100
    c3799     r379      1
    c3800     Obj       1
    c3800     r379      1
    c3800     r380      1
    c3801     Obj       2
    c3801     r379      1
    c3801     r380      1
    c3802     Obj       3
    c3802     r379      1
    c3802     r380      1
    c3803     Obj       4
    c3803     r379      1
    c3803     r380      1
    c3804     Obj       5
    c3804     r379      1
    c3804     r380      1
    c3805     Obj       6
    c3805     r380      1
    c3806     Obj       7
    c3806     r380      1
    c3807     Obj       8
    c3807     r380      1
    c3808     Obj       9
    c3808     r380      1
    c3809     Obj       10
    c3809     r380      1
    c3810     Obj       11
    c3810     r380      1
    c3810     r381      1
    c3811     Obj       12
    c3811     r380      1
    c3811     r381      1
    c3812     Obj       13
    c3812     r380      1
    c3812     r381      1
    c3813     Obj       14
    c3813     r380      1
    c3813     r381      1
    c3814     Obj       15
    c3814     r380      1
    c3814     r381      1
    c3815     Obj       16
    c3815     r381      1
    c3816     Obj       17
    c3816     r381      1
    c3817     Obj       18
    c3817     r381      1
    c3818     Obj       19
    c3818     r381      1
    c3819     Obj       20
    c3819     r381      1
    c3820     Obj       21
    c3820     r381      1
    c3820     r382      1
    c3821     Obj       22
    c3821     r381      1
    c3821     r382      1
    c3822     Obj       23
    c3822     r381      1
    c3822     r382      1
    c3823     Obj       24
    c3823     r381      1
    c3823     r382      1
    c3824     Obj       25
    c3824     r381      1
    c3824     r382      1
    c3825     Obj       26
    c3825     r382      1
    c3826     Obj       27
    c3826     r382      1
    c3827     Obj       28
    c3827     r382      1
    c3828     Obj       29
    c3828     r382      1
    c3829     Obj       30
    c3829     r382      1
    c3830     Obj       31
    c3830     r382      1
    c3830     r383      1
    c3831     Obj       32
    c3831     r382      1
    c3831     r383      1
    c3832     Obj       33
    c3832     r382      1
    c3832     r383      1
    c3833     Obj       34
    c3833     r382      1
    c3833     r383      1
    c3834     Obj       35
    c3834     r382      1
    c3834     r383      1
    c3835     Obj       36
    c3835     r383      1
    c3836     Obj       37
    c3836     r383      1
    c3837     Obj       38
    c3837     r383      1
    c3838     Obj       39
    c3838     r383      1
    c3839     Obj       40
    c3839     r383      1
    c3840     Obj       41
    c3840     r383      1
    c3840     r384      1
    c3841     Obj       42
    c3841     r383      1
    c3841     r384      1
    c3842     Obj       43
    c3842     r383      1
    c3842     r384      1
    c3843     Obj       44
    c3843     r383      1
    c3843     r384      1
    c3844     Obj       45
    c3844     r383      1
    c3844     r384      1
    c3845     Obj       46
    c3845     r384      1
    c3846     Obj       47
    c3846     r384      1
    c3847     Obj       48
    c3847     r384      1
    c3848     Obj       49
    c3848     r384      1
    c3849     Obj       50
    c3849     r384      1
    c3850     Obj       51
    c3850     r384      1
    c3850     r385      1
    c3851     Obj       52
    c3851     r384      1
    c3851     r385      1
    c3852     Obj       53
    c3852     r384      1
    c3852     r385      1
    c3853     Obj       54
    c3853     r384      1
    c3853     r385      1
    c3854     Obj       55
    c3854     r384      1
    c3854     r385      1
    c3855     Obj       56
    c3855     r385      1
    c3856     Obj       57
    c3856     r385      1
    c3857     Obj       58
    c3857     r385      1
    c3858     Obj       59
    c3858     r385      1
    c3859     Obj       60
    c3859     r385      1
    c3860     Obj       61
    c3860     r385      1
    c3860     r386      1
    c3861     Obj       62
    c3861     r385      1
    c3861     r386      1
    c3862     Obj       63
    c3862     r385      1
    c3862     r386      1
    c3863     Obj       64
    c3863     r385      1
    c3863     r386      1
    c3864     Obj       65
    c3864     r385      1
    c3864     r386      1
    c3865     Obj       66
    c3865     r386      1
    c3866     Obj       67
    c3866     r386      1
    c3867     Obj       68
    c3867     r386      1
    c3868     Obj       69
    c3868     r386      1
    c3869     Obj       70
    c3869     r386      1
    c3870     Obj       71
    c3870     r386      1
    c3870     r387      1
    c3871     Obj       72
    c3871     r386      1
    c3871     r387      1
    c3872     Obj       73
    c3872     r386      1
    c3872     r387      1
    c3873     Obj       74
    c3873     r386      1
    c3873     r387      1
    c3874     Obj       75
    c3874     r386      1
    c3874     r387      1
    c3875     Obj       76
    c3875     r387      1
    c3876     Obj       77
    c3876     r387      1
    c3877     Obj       78
    c3877     r387      1
    c3878     Obj       79
    c3878     r387      1
    c3879     Obj       80
    c3879     r387      1
    c3880     Obj       81
    c3880     r387      1
    c3880     r388      1
    c3881     Obj       82
    c3881     r387      1
    c3881     r388      1
    c3882     Obj       83
    c3882     r387      1
    c3882     r388      1
    c3883     Obj       84
    c3883     r387      1
    c3883     r388      1
    c3884     Obj       85
    c3884     r387      1
    c3884     r388      1
    c3885     Obj       86
    c3885     r388      1
    c3886     Obj       87
    c3886     r388      1
    c3887     Obj       88
    c3887     r388      1
    c3888     Obj       89
    c3888     r388      1
    c3889     Obj       90
    c3889     r388      1
    c3890     Obj       91
    c3890     r388      1
    c3890     r389      1
    c3891     Obj       92
    c3891     r388      1
    c3891     r389      1
    c3892     Obj       93
    c3892     r388      1
    c3892     r389      1
    c3893     Obj       94
    c3893     r388      1
    c3893     r389      1
    c3894     Obj       95
    c3894     r388      1
    c3894     r389      1
    c3895     Obj       96
    c3895     r389      1
    c3896     Obj       97
    c3896     r389      1
    c3897     Obj       98
    c3897     r389      1
    c3898     Obj       99
    c3898     r389      1
    c3899     Obj       100
    c3899     r389      1
    c3900     Obj       1
    c3900     r389      1
    c3900     r390      1
    c3901     Obj       2
    c3901     r389      1
    c3901     r390      1
    c3902     Obj       3
    c3902     r389      1
    c3902     r390      1
    c3903     Obj       4
    c3903     r389      1
    c3903     r390      1
    c3904     Obj       5
    c3904     r389      1
    c3904     r390      1
    c3905     Obj       6
    c3905     r390      1
    c3906     Obj       7
    c3906     r390      1
    c3907     Obj       8
    c3907     r390      1
    c3908     Obj       9
    c3908     r390      1
    c3909     Obj       10
    c3909     r390      1
    c3910     Obj       11
    c3910     r390      1
    c3910     r391      1
    c3911     Obj       12
    c3911     r390      1
    c3911     r391      1
    c3912     Obj       13
    c3912     r390      1
    c3912     r391      1
    c3913     Obj       14
    c3913     r390      1
    c3913     r391      1
    c3914     Obj       15
    c3914     r390      1
    c3914     r391      1
    c3915     Obj       16
    c3915     r391      1
    c3916     Obj       17
    c3916     r391      1
    c3917     Obj       18
    c3917     r391      1
    c3918     Obj       19
    c3918     r391      1
    c3919     Obj       20
    c3919     r391      1
    c3920     Obj       21
    c3920     r391      1
    c3920     r392      1
    c3921     Obj       22
    c3921     r391      1
    c3921     r392      1
    c3922     Obj       23
    c3922     r391      1
    c3922     r392      1
    c3923     Obj       24
    c3923     r391      1
    c3923     r392      1
    c3924     Obj       25
    c3924     r391      1
    c3924     r392      1
    c3925     Obj       26
    c3925     r392      1
    c3926     Obj       27
    c3926     r392      1
    c3927     Obj       28
    c3927     r392      1
    c3928     Obj       29
    c3928     r392      1
    c3929     Obj       30
    c3929     r392      1
    c3930     Obj       31
    c3930     r392      1
    c3930     r393      1
    c3931     Obj       32
    c3931     r392      1
    c3931     r393      1
    c3932     Obj       33
    c3932     r392      1
    c3932     r393      1
    c3933     Obj       34
    c3933     r392      1
    c3933     r393      1
    c3934     Obj       35
    c3934     r392      1
    c3934     r393      1
    c3935     Obj       36
    c3935     r393      1
    c3936     Obj       37
    c3936     r393      1
    c3937     Obj       38
    c3937     r393      1
    c3938     Obj       39
    c3938     r393      1
    c3939     Obj       40
    c3939     r393      1
    c3940     Obj       41
    c3940     r393      1
    c3940     r394      1
    c3941     Obj       42
    c3941     r393      1
    c3941     r394      1
    c3942     Obj       43
    c3942     r393      1
    c3942     r394      1
    c3943     Obj       44
    c3943     r393      1
    c3943     r394      1
    c3944     Obj       45
    c3944     r393      1
    c3944     r394      1
    c3945     Obj       46
    c3945     r394      1
    c3946     Obj       47
    c3946     r394      1
    c3947     Obj       48
    c3947     r394      1
    c3948     Obj       49
    c3948     r394      1
    c3949     Obj       50
    c3949     r394      1
    c3950     Obj       51
    c3950     r394      1
    c3950     r395      1
    c3951     Obj       52
    c3951     r394      1
    c3951     r395      1
    c3952     Obj       53
    c3952     r394      1
    c3952     r395      1
    c3953     Obj       54
    c3953     r394      1
    c3953     r395      1
    c3954     Obj       55
    c3954     r394      1
    c3954     r395      1
    c3955     Obj       56
    c3955     r395      1
    c3956     Obj       57
    c3956     r395      1
    c3957     Obj       58
    c3957     r395      1
    c3958     Obj       59
    c3958     r395      1
    c3959     Obj       60
    c3959     r395      1
    c3960     Obj       61
    c3960     r395      1
    c3960     r396      1
    c3961     Obj       62
    c3961     r395      1
    c3961     r396      1
    c3962     Obj       63
    c3962     r395      1
    c3962     r396      1
    c3963     Obj       64
    c3963     r395      1
    c3963     r396      1
    c3964     Obj       65
    c3964     r395      1
    c3964     r396      1
    c3965     Obj       66
    c3965     r396      1
    c3966     Obj       67
    c3966     r396      1
    c3967     Obj       68
    c3967     r396      1
    c3968     Obj       69
    c3968     r396      1
    c3969     Obj       70
    c3969     r396      1
    c3970     Obj       71
    c3970     r396      1
    c3970     r397      1
    c3971     Obj       72
    c3971     r396      1
    c3971     r397      1
    c3972     Obj       73
    c3972     r396      1
    c3972     r397      1
    c3973     Obj       74
    c3973     r396      1
    c3973     r397      1
    c3974     Obj       75
    c3974     r396      1
    c3974     r397      1
    c3975     Obj       76
    c3975     r397      1
    c3976     Obj       77
    c3976     r397      1
    c3977     Obj       78
    c3977     r397      1
    c3978     Obj       79
    c3978     r397      1
    c3979     Obj       80
    c3979     r397      1
    c3980     Obj       81
    c3980     r397      1
    c3980     r398      1
    c3981     Obj       82
    c3981     r397      1
    c3981     r398      1
    c3982     Obj       83
    c3982     r397      1
    c3982     r398      1
    c3983     Obj       84
    c3983     r397      1
    c3983     r398      1
    c3984     Obj       85
    c3984     r397      1
    c3984     r398      1
    c3985     Obj       86
    c3985     r398      1
    c3986     Obj       87
    c3986     r398      1
    c3987     Obj       88
    c3987     r398      1
    c3988     Obj       89
    c3988     r398      1
    c3989     Obj       90
    c3989     r398      1
    c3990     Obj       91
    c3990     r398      1
    c3990     r399      1
    c3991     Obj       92
    c3991     r398      1
    c3991     r399      1
    c3992     Obj       93
    c3992     r398      1
    c3992     r399      1
    c3993     Obj       94
    c3993     r398      1
    c3993     r399      1
    c3994     Obj       95
    c3994     r398      1
    c3994     r399      1
    c3995     Obj       96
    c3995     r399      1
    c3996     Obj       97
    c3996     r399      1
    c3997     Obj       98
    c3997     r399      1
    c3998     Obj       99
    c3998     r399      1
    c3999     Obj       100
    c3999     r399      1
    c4000     Obj       1
    c4000     r399      1
    c4000     r400      1
    c4001     Obj       2
    c4001     r399      1
    c4001     r400      1
    c4002     Obj       3
    c4002     r399      1
    c4002     r400      1
    c4003     Obj       4
    c4003     r399      1
    c4003     r400      1
    c4004     Obj       5
    c4004     r399      1
    c4004     r400      1
    c4005     Obj       6
    c4005     r400      1
    c4006     Obj       7
    c4006     r400      1
    c4007     Obj       8
    c4007     r400      1
    c4008     Obj       9
    c4008     r400      1
    c4009     Obj       10
    c4009     r400      1
    c4010     Obj       11
    c4010     r400      1
    c4010     r401      1
    c4011     Obj       12
    c4011     r400      1
    c4011     r401      1
    c4012     Obj       13
    c4012     r400      1
    c4012     r401      1
    c4013     Obj       14
    c4013     r400      1
    c4013     r401      1
    c4014     Obj       15
    c4014     r400      1
    c4014     r401      1
    c4015     Obj       16
    c4015     r401      1
    c4016     Obj       17
    c4016     r401      1
    c4017     Obj       18
    c4017     r401      1
    c4018     Obj       19
    c4018     r401      1
    c4019     Obj       20
    c4019     r401      1
    c4020     Obj       21
    c4020     r401      1
    c4020     r402      1
    c4021     Obj       22
    c4021     r401      1
    c4021     r402      1
    c4022     Obj       23
    c4022     r401      1
    c4022     r402      1
    c4023     Obj       24
    c4023     r401      1
    c4023     r402      1
    c4024     Obj       25
    c4024     r401      1
    c4024     r402      1
    c4025     Obj       26
    c4025     r402      1
    c4026     Obj       27
    c4026     r402      1
    c4027     Obj       28
    c4027     r402      1
    c4028     Obj       29
    c4028     r402      1
    c4029     Obj       30
    c4029     r402      1
    c4030     Obj       31
    c4030     r402      1
    c4030     r403      1
    c4031     Obj       32
    c4031     r402      1
    c4031     r403      1
    c4032     Obj       33
    c4032     r402      1
    c4032     r403      1
    c4033     Obj       34
    c4033     r402      1
    c4033     r403      1
    c4034     Obj       35
    c4034     r402      1
    c4034     r403      1
    c4035     Obj       36
    c4035     r403      1
    c4036     Obj       37
    c4036     r403      1
    c4037     Obj       38
    c4037     r403      1
    c4038     Obj       39
    c4038     r403      1
    c4039     Obj       40
    c4039     r403      1
    c4040     Obj       41
    c4040     r403      1
    c4040     r404      1
    c4041     Obj       42
    c4041     r403      1
    c4041     r404      1
    c4042     Obj       43
    c4042     r403      1
    c4042     r404      1
    c4043     Obj       44
    c4043     r403      1
    c4043     r404      1
    c4044     Obj       45
    c4044     r403      1
    c4044     r404      1
    c4045     Obj       46
    c4045     r404      1
    c4046     Obj       47
    c4046     r404      1
    c4047     Obj       48
    c4047     r404      1
    c4048     Obj       49
    c4048     r404      1
    c4049     Obj       50
    c4049     r404      1
    c4050     Obj       51
    c4050     r404      1
    c4050     r405      1
    c4051     Obj       52
    c4051     r404      1
    c4051     r405      1
    c4052     Obj       53
    c4052     r404      1
    c4052     r405      1
    c4053     Obj       54
    c4053     r404      1
    c4053     r405      1
    c4054     Obj       55
    c4054     r404      1
    c4054     r405      1
    c4055     Obj       56
    c4055     r405      1
    c4056     Obj       57
    c4056     r405      1
    c4057     Obj       58
    c4057     r405      1
    c4058     Obj       59
    c4058     r405      1
    c4059     Obj       60
    c4059     r405      1
    c4060     Obj       61
    c4060     r405      1
    c4060     r406      1
    c4061     Obj       62
    c4061     r405      1
    c4061     r406      1
    c4062     Obj       63
    c4062     r405      1
    c4062     r406      1
    c4063     Obj       64
    c4063     r405      1
    c4063     r406      1
    c4064     Obj       65
    c4064     r405      1
    c4064     r406      1
    c4065     Obj       66
    c4065     r406      1
    c4066     Obj       67
    c4066     r406      1
    c4067     Obj       68
    c4067     r406      1
    c4068     Obj       69
    c4068     r406      1
    c4069     Obj       70
    c4069     r406      1
    c4070     Obj       71
    c4070     r406      1
    c4070     r407      1
    c4071     Obj       72
    c4071     r406      1
    c4071     r407      1
    c4072     Obj       73
    c4072     r406      1
    c4072     r407      1
    c4073     Obj       74
    c4073     r406      1
    c4073     r407      1
    c4074     Obj       75
    c4074     r406      1
    c4074     r407      1
    c4075     Obj       76
    c4075     r407      1
    c4076     Obj       77
    c4076     r407      1
    c4077     Obj       78
    c4077     r407      1
    c4078     Obj       79
    c4078     r407      1
    c4079     Obj       80
    c4079     r407      1
    c4080     Obj       81
    c4080     r407      1
    c4080     r408      1
    c4081     Obj       82
    c4081     r407      1
    c4081     r408      1
    c4082     Obj       83
    c4082     r407      1
    c4082     r408      1
    c4083     Obj       84
    c4083     r407      1
    c4083     r408      1
    c4084     Obj       85
    c4084     r407      1
    c4084     r408      1
    c4085     Obj       86
    c4085     r408      1
    c4086     Obj       87
    c4086     r408      1
    c4087     Obj       88
    c4087     r408      1
    c4088     Obj       89
    c4088     r408      1
    c4089     Obj       90
    c4089     r408      1
    c4090     Obj       91
    c4090     r408      1
    c4090     r409      1
    c4091     Obj       92
    c4091     r408      1
    c4091     r409      1
    c4092     Obj       93
    c4092     r408      1
    c4092     r409      1
    c4093     Obj       94
    c4093     r408      1
    c4093     r409      1
    c4094     Obj       95
    c4094     r408      1
    c4094     r409      1
    c4095     Obj       96
    c4095     r409      1
    c4096     Obj       97
    c4096     r409      1
    c4097     Obj       98
    c4097     r409      1
    c4098     Obj       99
    c4098     r409      1
    c4099     Obj       100
    c4099     r409      1
    c4100     Obj       1
    c4100     r409      1
    c4100     r410      1
    c4101     Obj       2
    c4101     r409      1
    c4101     r410      1
    c4102     Obj       3
    c4102     r409      1
    c4102     r410      1
    c4103     Obj       4
    c4103     r409      1
    c4103     r410      1
    c4104     Obj       5
    c4104     r409      1
    c4104     r410      1
    c4105     Obj       6
    c4105     r410      1
    c4106     Obj       7
    c4106     r410      1
    c4107     Obj       8
    c4107     r410      1
    c4108     Obj       9
    c4108     r410      1
    c4109     Obj       10
    c4109     r410      1
    c4110     Obj       11
    c4110     r410      1
    c4110     r411      1
    c4111     Obj       12
    c4111     r410      1
    c4111     r411      1
    c4112     Obj       13
    c4112     r410      1
    c4112     r411      1
    c4113     Obj       14
    c4113     r410      1
    c4113     r411      1
    c4114     Obj       15
    c4114     r410      1
    c4114     r411      1
    c4115     Obj       16
    c4115     r411      1
    c4116     Obj       17
    c4116     r411      1
    c4117     Obj       18
    c4117     r411      1
    c4118     Obj       19
    c4118     r411      1
    c4119     Obj       20
    c4119     r411      1
    c4120     Obj       21
    c4120     r411      1
    c4120     r412      1
    c4121     Obj       22
    c4121     r411      1
    c4121     r412      1
    c4122     Obj       23
    c4122     r411      1
    c4122     r412      1
    c4123     Obj       24
    c4123     r411      1
    c4123     r412      1
    c4124     Obj       25
    c4124     r411      1
    c4124     r412      1
    c4125     Obj       26
    c4125     r412      1
    c4126     Obj       27
    c4126     r412      1
    c4127     Obj       28
    c4127     r412      1
    c4128     Obj       29
    c4128     r412      1
    c4129     Obj       30
    c4129     r412      1
    c4130     Obj       31
    c4130     r412      1
    c4130     r413      1
    c4131     Obj       32
    c4131     r412      1
    c4131     r413      1
    c4132     Obj       33
    c4132     r412      1
    c4132     r413      1
    c4133     Obj       34
    c4133     r412      1
    c4133     r413      1
    c4134     Obj       35
    c4134     r412      1
    c4134     r413      1
    c4135     Obj       36
    c4135     r413      1
    c4136     Obj       37
    c4136     r413      1
    c4137     Obj       38
    c4137     r413      1
    c4138     Obj       39
    c4138     r413      1
    c4139     Obj       40
    c4139     r413      1
    c4140     Obj       41
    c4140     r413      1
    c4140     r414      1
    c4141     Obj       42
    c4141     r413      1
    c4141     r414      1
    c4142     Obj       43
    c4142     r413      1
    c4142     r414      1
    c4143     Obj       44
    c4143     r413      1
    c4143     r414      1
    c4144     Obj       45
    c4144     r413      1
    c4144     r414      1
    c4145     Obj       46
    c4145     r414      1
    c4146     Obj       47
    c4146     r414      1
    c4147     Obj       48
    c4147     r414      1
    c4148     Obj       49
    c4148     r414      1
    c4149     Obj       50
    c4149     r414      1
    c4150     Obj       51
    c4150     r414      1
    c4150     r415      1
    c4151     Obj       52
    c4151     r414      1
    c4151     r415      1
    c4152     Obj       53
    c4152     r414      1
    c4152     r415      1
    c4153     Obj       54
    c4153     r414      1
    c4153     r415      1
    c4154     Obj       55
    c4154     r414      1
    c4154     r415      1
    c4155     Obj       56
    c4155     r415      1
    c4156     Obj       57
    c4156     r415      1
    c4157     Obj       58
    c4157     r415      1
    c4158     Obj       59
    c4158     r415      1
    c4159     Obj       60
    c4159     r415      1
    c4160     Obj       61
    c4160     r415      1
    c4160     r416      1
    c4161     Obj       62
    c4161     r415      1
    c4161     r416      1
    c4162     Obj       63
    c4162     r415      1
    c4162     r416      1
    c4163     Obj       64
    c4163     r415      1
    c4163     r416      1
    c4164     Obj       65
    c4164     r415      1
    c4164     r416      1
    c4165     Obj       66
    c4165     r416      1
    c4166     Obj       67
    c4166     r416      1
    c4167     Obj       68
    c4167     r416      1
    c4168     Obj       69
    c4168     r416      1
    c4169     Obj       70
    c4169     r416      1
    c4170     Obj       71
    c4170     r416      1
    c4170     r417      1
    c4171     Obj       72
    c4171     r416      1
    c4171     r417      1
    c4172     Obj       73
    c4172     r416      1
    c4172     r417      1
    c4173     Obj       74
    c4173     r416      1
    c4173     r417      1
    c4174     Obj       75
    c4174     r416      1
    c4174     r417      1
    c4175     Obj       76
    c4175     r417      1
    c4176     Obj       77
    c4176     r417      1
    c4177     Obj       78
    c4177     r417      1
    c4178     Obj       79
    c4178     r417      1
    c4179     Obj       80
    c4179     r417      1
    c4180     Obj       81
    c4180     r417      1
    c4180     r418      1
    c4181     Obj       82
    c4181     r417      1
    c4181     r418      1
    c4182     Obj       83
    c4182     r417      1
    c4182     r418      1
    c4183     Obj       84
    c4183     r417      1
    c4183     r418      1
    c4184     Obj       85
    c4184     r417      1
    c4184     r418      1
    c4185     Obj       86
    c4185     r418      1
    c4186     Obj       87
    c4186     r418      1
    c4187     Obj       88
    c4187     r418      1
    c4188     Obj       89
    c4188     r418      1
    c4189     Obj       90
    c4189     r418      1
    c4190     Obj       91
    c4190     r418      1
    c4190     r419      1
    c4191     Obj       92
    c4191     r418      1
    c4191     r419      1
    c4192     Obj       93
    c4192     r418      1
    c4192     r419      1
    c4193     Obj       94
    c4193     r418      1
    c4193     r419      1
    c4194     Obj       95
    c4194     r418      1
    c4194     r419      1
    c4195     Obj       96
    c4195     r419      1
    c4196     Obj       97
    c4196     r419      1
    c4197     Obj       98
    c4197     r419      1
    c4198     Obj       99
    c4198     r419      1
    c4199     Obj       100
    c4199     r419      1
    c4200     Obj       1
    c4200     r419      1
    c4200     r420      1
    c4201     Obj       2
    c4201     r419      1
    c4201     r420      1
    c4202     Obj       3
    c4202     r419      1
    c4202     r420      1
    c4203     Obj       4
    c4203     r419      1
    c4203     r420      1
    c4204     Obj       5
    c4204     r419      1
    c4204     r420      1
    c4205     Obj       6
    c4205     r420      1
    c4206     Obj       7
    c4206     r420      1
    c4207     Obj       8
    c4207     r420      1
    c4208     Obj       9
    c4208     r420      1
    c4209     Obj       10
    c4209     r420      1
    c4210     Obj       11
    c4210     r420      1
    c4210     r421      1
    c4211     Obj       12
    c4211     r420      1
    c4211     r421      1
    c4212     Obj       13
    c4212     r420      1
    c4212     r421      1
    c4213     Obj       14
    c4213     r420      1
    c4213     r421      1
    c4214     Obj       15
    c4214     r420      1
    c4214     r421      1
    c4215     Obj       16
    c4215     r421      1
    c4216     Obj       17
    c4216     r421      1
    c4217     Obj       18
    c4217     r421      1
    c4218     Obj       19
    c4218     r421      1
    c4219     Obj       20
    c4219     r421      1
    c4220     Obj       21
    c4220     r421      1
    c4220     r422      1
    c4221     Obj       22
    c4221     r421      1
    c4221     r422      1
    c4222     Obj       23
    c4222     r421      1
    c4222     r422      1
    c4223     Obj       24
    c4223     r421      1
    c4223     r422      1
    c4224     Obj       25
    c4224     r421      1
    c4224     r422      1
    c4225     Obj       26
    c4225     r422      1
    c4226     Obj       27
    c4226     r422      1
    c4227     Obj       28
    c4227     r422      1
    c4228     Obj       29
    c4228     r422      1
    c4229     Obj       30
    c4229     r422      1
    c4230     Obj       31
    c4230     r422      1
    c4230     r423      1
    c4231     Obj       32
    c4231     r422      1
    c4231     r423      1
    c4232     Obj       33
    c4232     r422      1
    c4232     r423      1
    c4233     Obj       34
    c4233     r422      1
    c4233     r423      1
    c4234     Obj       35
    c4234     r422      1
    c4234     r423      1
    c4235     Obj       36
    c4235     r423      1
    c4236     Obj       37
    c4236     r423      1
    c4237     Obj       38
    c4237     r423      1
    c4238     Obj       39
    c4238     r423      1
    c4239     Obj       40
    c4239     r423      1
    c4240     Obj       41
    c4240     r423      1
    c4240     r424      1
    c4241     Obj       42
    c4241     r423      1
    c4241     r424      1
    c4242     Obj       43
    c4242     r423      1
    c4242     r424      1
    c4243     Obj       44
    c4243     r423      1
    c4243     r424      1
    c4244     Obj       45
    c4244     r423      1
    c4244     r424      1
    c4245     Obj       46
    c4245     r424      1
    c4246     Obj       47
    c4246     r424      1
    c4247     Obj       48
    c4247     r424      1
    c4248     Obj       49
    c4248     r424      1
    c4249     Obj       50
    c4249     r424      1
    c4250     Obj       51
    c4250     r424      1
    c4250     r425      1
    c4251     Obj       52
    c4251     r424      1
    c4251     r425      1
    c4252     Obj       53
    c4252     r424      1
    c4252     r425      1
    c4253     Obj       54
    c4253     r424      1
    c4253     r425      1
    c4254     Obj       55
    c4254     r424      1
    c4254     r425      1
    c4255     Obj       56
    c4255     r425      1
    c4256     Obj       57
    c4256     r425      1
    c4257     Obj       58
    c4257     r425      1
    c4258     Obj       59
    c4258     r425      1
    c4259     Obj       60
    c4259     r425      1
    c4260     Obj       61
    c4260     r425      1
    c4260     r426      1
    c4261     Obj       62
    c4261     r425      1
    c4261     r426      1
    c4262     Obj       63
    c4262     r425      1
    c4262     r426      1
    c4263     Obj       64
    c4263     r425      1
    c4263     r426      1
    c4264     Obj       65
    c4264     r425      1
    c4264     r426      1
    c4265     Obj       66
    c4265     r426      1
    c4266     Obj       67
    c4266     r426      1
    c4267     Obj       68
    c4267     r426      1
    c4268     Obj       69
    c4268     r426      1
    c4269     Obj       70
    c4269     r426      1
    c4270     Obj       71
    c4270     r426      1
    c4270     r427      1
    c4271     Obj       72
    c4271     r426      1
    c4271     r427      1
    c4272     Obj       73
    c4272     r426      1
    c4272     r427      1
    c4273     Obj       74
    c4273     r426      1
    c4273     r427      1
    c4274     Obj       75
    c4274     r426      1
    c4274     r427      1
    c4275     Obj       76
    c4275     r427      1
    c4276     Obj       77
    c4276     r427      1
    c4277     Obj       78
    c4277     r427      1
    c4278     Obj       79
    c4278     r427      1
    c4279     Obj       80
    c4279     r427      1
    c4280     Obj       81
    c4280     r427      1
    c4280     r428      1
    c4281     Obj       82
    c4281     r427      1
    c4281     r428      1
    c4282     Obj       83
    c4282     r427      1
    c4282     r428      1
    c4283     Obj       84
    c4283     r427      1
    c4283     r428      1
    c4284     Obj       85
    c4284     r427      1
    c4284     r428      1
    c4285     Obj       86
    c4285     r428      1
    c4286     Obj       87
    c4286     r428      1
    c4287     Obj       88
    c4287     r428      1
    c4288     Obj       89
    c4288     r428      1
    c4289     Obj       90
    c4289     r428      1
    c4290     Obj       91
    c4290     r428      1
    c4290     r429      1
    c4291     Obj       92
    c4291     r428      1
    c4291     r429      1
    c4292     Obj       93
    c4292     r428      1
    c4292     r429      1
    c4293     Obj       94
    c4293     r428      1
    c4293     r429      1
    c4294     Obj       95
    c4294     r428      1
    c4294     r429      1
    c4295     Obj       96
    c4295     r429      1
    c4296     Obj       97
    c4296     r429      1
    c4297     Obj       98
    c4297     r429      1
    c4298     Obj       99
    c4298     r429      1
    c4299     Obj       100
    c4299     r429      1
    c4300     Obj       1
    c4300     r429      1
    c4300     r430      1
    c4301     Obj       2
    c4301     r429      1
    c4301     r430      1
    c4302     Obj       3
    c4302     r429      1
    c4302     r430      1
    c4303     Obj       4
    c4303     r429      1
    c4303     r430      1
    c4304     Obj       5
    c4304     r429      1
    c4304     r430      1
    c4305     Obj       6
    c4305     r430      1
    c4306     Obj       7
    c4306     r430      1
    c4307     Obj       8
    c4307     r430      1
    c4308     Obj       9
    c4308     r430      1
    c4309     Obj       10
    c4309     r430      1
    c4310     Obj       11
    c4310     r430      1
    c4310     r431      1
    c4311     Obj       12
    c4311     r430      1
    c4311     r431      1
    c4312     Obj       13
    c4312     r430      1
    c4312     r431      1
    c4313     Obj       14
    c4313     r430      1
    c4313     r431      1
    c4314     Obj       15
    c4314     r430      1
    c4314     r431      1
    c4315     Obj       16
    c4315     r431      1
    c4316     Obj       17
    c4316     r431      1
    c4317     Obj       18
    c4317     r431      1
    c4318     Obj       19
    c4318     r431      1
    c4319     Obj       20
    c4319     r431      1
    c4320     Obj       21
    c4320     r431      1
    c4320     r432      1
    c4321     Obj       22
    c4321     r431      1
    c4321     r432      1
    c4322     Obj       23
    c4322     r431      1
    c4322     r432      1
    c4323     Obj       24
    c4323     r431      1
    c4323     r432      1
    c4324     Obj       25
    c4324     r431      1
    c4324     r432      1
    c4325     Obj       26
    c4325     r432      1
    c4326     Obj       27
    c4326     r432      1
    c4327     Obj       28
    c4327     r432      1
    c4328     Obj       29
    c4328     r432      1
    c4329     Obj       30
    c4329     r432      1
    c4330     Obj       31
    c4330     r432      1
    c4330     r433      1
    c4331     Obj       32
    c4331     r432      1
    c4331     r433      1
    c4332     Obj       33
    c4332     r432      1
    c4332     r433      1
    c4333     Obj       34
    c4333     r432      1
    c4333     r433      1
    c4334     Obj       35
    c4334     r432      1
    c4334     r433      1
    c4335     Obj       36
    c4335     r433      1
    c4336     Obj       37
    c4336     r433      1
    c4337     Obj       38
    c4337     r433      1
    c4338     Obj       39
    c4338     r433      1
    c4339     Obj       40
    c4339     r433      1
    c4340     Obj       41
    c4340     r433      1
    c4340     r434      1
    c4341     Obj       42
    c4341     r433      1
    c4341     r434      1
    c4342     Obj       43
    c4342     r433      1
    c4342     r434      1
    c4343     Obj       44
    c4343     r433      1
    c4343     r434      1
    c4344     Obj       45
    c4344     r433      1
    c4344     r434      1
    c4345     Obj       46
    c4345     r434      1
    c4346     Obj       47
    c4346     r434      1
    c4347     Obj       48
    c4347     r434      1
    c4348     Obj       49
    c4348     r434      1
    c4349     Obj       50
    c4349     r434      1
    c4350     Obj       51
    c4350     r434      1
    c4350     r435      1
    c4351     Obj       52
    c4351     r434      1
    c4351     r435      1
    c4352     Obj       53
    c4352     r434      1
    c4352     r435      1
    c4353     Obj       54
    c4353     r434      1
    c4353     r435      1
    c4354     Obj       55
    c4354     r434      1
    c4354     r435      1
    c4355     Obj       56
    c4355     r435      1
    c4356     Obj       57
    c4356     r435      1
    c4357     Obj       58
    c4357     r435      1
    c4358     Obj       59
    c4358     r435      1
    c4359     Obj       60
    c4359     r435      1
    c4360     Obj       61
    c4360     r435      1
    c4360     r436      1
    c4361     Obj       62
    c4361     r435      1
    c4361     r436      1
    c4362     Obj       63
    c4362     r435      1
    c4362     r436      1
    c4363     Obj       64
    c4363     r435      1
    c4363     r436      1
    c4364     Obj       65
    c4364     r435      1
    c4364     r436      1
    c4365     Obj       66
    c4365     r436      1
    c4366     Obj       67
    c4366     r436      1
    c4367     Obj       68
    c4367     r436      1
    c4368     Obj       69
    c4368     r436      1
    c4369     Obj       70
    c4369     r436      1
    c4370     Obj       71
    c4370     r436      1
    c4370     r437      1
    c4371     Obj       72
    c4371     r436      1
    c4371     r437      1
    c4372     Obj       73
    c4372     r436      1
    c4372     r437      1
    c4373     Obj       74
    c4373     r436      1
    c4373     r437      1
    c4374     Obj       75
    c4374     r436      1
    c4374     r437      1
    c4375     Obj       76
    c4375     r437      1
    c4376     Obj       77
    c4376     r437      1
    c4377     Obj       78
    c4377     r437      1
    c4378     Obj       79
    c4378     r437      1
    c4379     Obj       80
    c4379     r437      1
    c4380     Obj       81
    c4380     r437      1
    c4380     r438      1
    c4381     Obj       82
    c4381     r437      1
    c4381     r438      1
    c4382     Obj       83
    c4382     r437      1
    c4382     r438      1
    c4383     Obj       84
    c4383     r437      1
    c4383     r438      1
    c4384     Obj       85
    c4384     r437      1
    c4384     r438      1
    c4385     Obj       86
    c4385     r438      1
    c4386     Obj       87
    c4386     r438      1
    c4387     Obj       88
    c4387     r438      1
    c4388     Obj       89
    c4388     r438      1
    c4389     Obj       90
    c4389     r438      1
    c4390     Obj       91
    c4390     r438      1
    c4390     r439      1
    c4391     Obj       92
    c4391     r438      1
    c4391     r439      1
    c4392     Obj       93
    c4392     r438      1
    c4392     r439      1
    c4393     Obj       94
    c4393     r438      1
    c4393     r439      1
    c4394     Obj       95
    c4394     r438      1
    c4394     r439      1
    c4395     Obj       96
    c4395     r439      1
    c4396     Obj       97
    c4396     r439      1
    c4397     Obj       98
    c4397     r439      1
    c4398     Obj       99
    c4398     r439      1
    c4399     Obj       100
    c4399     r439      1
    c4400     Obj       1
    c4400     r439      1
    c4400     r440      1
    c4401     Obj       2
    c4401     r439      1
    c4401     r440      1
    c4402     Obj       3
    c4402     r439      1
    c4402     r440      1
    c4403     Obj       4
    c4403     r439      1
    c4403     r440      1
    c4404     Obj       5
    c4404     r439      1
    c4404     r440      1
    c4405     Obj       6
    c4405     r440      1
    c4406     Obj       7
    c4406     r440      1
    c4407     Obj       8
    c4407     r440      1
    c4408     Obj       9
    c4408     r440      1
    c4409     Obj       10
    c4409     r440      1
    c4410     Obj       11
    c4410     r440      1
    c4410     r441      1
    c4411     Obj       12
    c4411     r440      1
    c4411     r441      1
    c4412     Obj       13
    c4412     r440      1
    c4412     r441      1
    c4413     Obj       14
    c4413     r440      1
    c4413     r441      1
    c4414     Obj       15
    c4414     r440      1
    c4414     r441      1
    c4415     Obj       16
    c4415     r441      1
    c4416     Obj       17
    c4416     r441      1
    c4417     Obj       18
    c4417     r441      1
    c4418     Obj       19
    c4418     r441      1
    c4419     Obj       20
    c4419     r441      1
    c4420     Obj       21
    c4420     r441      1
    c4420     r442      1
    c4421     Obj       22
    c4421     r441      1
    c4421     r442      1
    c4422     Obj       23
    c4422     r441      1
    c4422     r442      1
    c4423     Obj       24
    c4423     r441      1
    c4423     r442      1
    c4424     Obj       25
    c4424     r441      1
    c4424     r442      1
    c4425     Obj       26
    c4425     r442      1
    c4426     Obj       27
    c4426     r442      1
    c4427     Obj       28
    c4427     r442      1
    c4428     Obj       29
    c4428     r442      1
    c4429     Obj       30
    c4429     r442      1
    c4430     Obj       31
    c4430     r442      1
    c4430     r443      1
    c4431     Obj       32
    c4431     r442      1
    c4431     r443      1
    c4432     Obj       33
    c4432     r442      1
    c4432     r443      1
    c4433     Obj       34
    c4433     r442      1
    c4433     r443      1
    c4434     Obj       35
    c4434     r442      1
    c4434     r443      1
    c4435     Obj       36
    c4435     r443      1
    c4436     Obj       37
    c4436     r443      1
    c4437     Obj       38
    c4437     r443      1
    c4438     Obj       39
    c4438     r443      1
    c4439     Obj       40
    c4439     r443      1
    c4440     Obj       41
    c4440     r443      1
    c4440     r444      1
    c4441     Obj       42
    c4441     r443      1
    c4441     r444      1
    c4442     Obj       43
    c4442     r443      1
    c4442     r444      1
    c4443     Obj       44
    c4443     r443      1
    c4443     r444      1
    c4444     Obj       45
    c4444     r443      1
    c4444     r444      1
    c4445     Obj       46
    c4445     r444      1
    c4446     Obj       47
    c4446     r444      1
    c4447     Obj       48
    c4447     r444      1
    c4448     Obj       49
    c4448     r444      1
    c4449     Obj       50
    c4449     r444      1
    c4450     Obj       51
    c4450     r444      1
    c4450     r445      1
    c4451     Obj       52
    c4451     r444      1
    c4451     r445      1
    c4452     Obj       53
    c4452     r444      1
    c4452     r445      1
    c4453     Obj       54
    c4453     r444      1
    c4453     r445      1
    c4454     Obj       55
    c4454     r444      1
    c4454     r445      1
    c4455     Obj       56
    c4455     r445      1
    c4456     Obj       57
    c4456     r445      1
    c4457     Obj       58
    c4457     r445      1
    c4458     Obj       59
    c4458     r445      1
    c4459     Obj       60
    c4459     r445      1
    c4460     Obj       61
    c4460     r445      1
    c4460     r446      1
    c4461     Obj       62
    c4461     r445      1
    c4461     r446      1
    c4462     Obj       63
    c4462     r445      1
    c4462     r446      1
    c4463     Obj       64
    c4463     r445      1
    c4463     r446      1
    c4464     Obj       65
    c4464     r445      1
    c4464     r446      1
    c4465     Obj       66
    c4465     r446      1
    c4466     Obj       67
    c4466     r446      1
    c4467     Obj       68
    c4467     r446      1
    c4468     Obj       69
    c4468     r446      1
    c4469     Obj       70
    c4469     r446      1
    c4470     Obj       71
    c4470     r446      1
    c4470     r447      1
    c4471     Obj       72
    c4471     r446      1
    c4471     r447      1
    c4472     Obj       73
    c4472     r446      1
    c4472     r447      1
    c4473     Obj       74
    c4473     r446      1
    c4473     r447      1
    c4474     Obj       75
    c4474     r446      1
    c4474     r447      1
    c4475     Obj       76
    c4475     r447      1
    c4476     Obj       77
    c4476     r447      1
    c4477     Obj       78
    c4477     r447      1
    c4478     Obj       79
    c4478     r447      1
    c4479     Obj       80
    c4479     r447      1
    c4480     Obj       81
    c4480     r447      1
    c4480     r448      1
    c4481     Obj       82
    c4481     r447      1
    c4481     r448      1
    c4482     Obj       83
    c4482     r447      1
    c4482     r448      1
    c4483     Obj       84
    c4483     r447      1
    c4483     r448      1
    c4484     Obj       85
    c4484     r447      1
    c4484     r448      1
    c4485     Obj       86
    c4485     r448      1
    c4486     Obj       87
    c4486     r448      1
    c4487     Obj       88
    c4487     r448      1
    c4488     Obj       89
    c4488     r448      1
    c4489     Obj       90
    c4489     r448      1
    c4490     Obj       91
    c4490     r448      1
    c4490     r449      1
    c4491     Obj       92
    c4491     r448      1
    c4491     r449      1
    c4492     Obj       93
    c4492     r448      1
    c4492     r449      1
    c4493     Obj       94
    c4493     r448      1
    c4493     r449      1
    c4494     Obj       95
    c4494     r448      1
    c4494     r449      1
    c4495     Obj       96
    c4495     r449      1
    c4496     Obj       97
    c4496     r449      1
    c4497     Obj       98
    c4497     r449      1
    c4498     Obj       99
    c4498     r449      1
    c4499     Obj       100
    c4499     r449      1
    c4500     Obj       1
    c4500     r449      1
    c4500     r450      1
    c4501     Obj       2
    c4501     r449      1
    c4501     r450      1
    c4502     Obj       3
    c4502     r449      1
    c4502     r450      1
    c4503     Obj       4
    c4503     r449      1
    c4503     r450      1
    c4504     Obj       5
    c4504     r449      1
    c4504     r450      1
    c4505     Obj       6
    c4505     r450      1
    c4506     Obj       7
    c4506     r450      1
    c4507     Obj       8
    c4507     r450      1
    c4508     Obj       9
    c4508     r450      1
    c4509     Obj       10
    c4509     r450      1
    c4510     Obj       11
    c4510     r450      1
    c4510     r451      1
    c4511     Obj       12
    c4511     r450      1
    c4511     r451      1
    c4512     Obj       13
    c4512     r450      1
    c4512     r451      1
    c4513     Obj       14
    c4513     r450      1
    c4513     r451      1
    c4514     Obj       15
    c4514     r450      1
    c4514     r451      1
    c4515     Obj       16
    c4515     r451      1
    c4516     Obj       17
    c4516     r451      1
    c4517     Obj       18
    c4517     r451      1
    c4518     Obj       19
    c4518     r451      1
    c4519     Obj       20
    c4519     r451      1
    c4520     Obj       21
    c4520     r451      1
    c4520     r452      1
    c4521     Obj       22
    c4521     r451      1
    c4521     r452      1
    c4522     Obj       23
    c4522     r451      1
    c4522     r452      1
    c4523     Obj       24
    c4523     r451      1
    c4523     r452      1
    c4524     Obj       25
    c4524     r451      1
    c4524     r452      1
    c4525     Obj       26
    c4525     r452      1
    c4526     Obj       27
    c4526     r452      1
    c4527     Obj       28
    c4527     r452      1
    c4528     Obj       29
    c4528     r452      1
    c4529     Obj       30
    c4529     r452      1
    c4530     Obj       31
    c4530     r452      1
    c4530     r453      1
    c4531     Obj       32
    c4531     r452      1
    c4531     r453      1
    c4532     Obj       33
    c4532     r452      1
    c4532     r453      1
    c4533     Obj       34
    c4533     r452      1
    c4533     r453      1
    c4534     Obj       35
    c4534     r452      1
    c4534     r453      1
    c4535     Obj       36
    c4535     r453      1
    c4536     Obj       37
    c4536     r453      1
    c4537     Obj       38
    c4537     r453      1
    c4538     Obj       39
    c4538     r453      1
    c4539     Obj       40
    c4539     r453      1
    c4540     Obj       41
    c4540     r453      1
    c4540     r454      1
    c4541     Obj       42
    c4541     r453      1
    c4541     r454      1
    c4542     Obj       43
    c4542     r453      1
    c4542     r454      1
    c4543     Obj       44
    c4543     r453      1
    c4543     r454      1
    c4544     Obj       45
    c4544     r453      1
    c4544     r454      1
    c4545     Obj       46
    c4545     r454      1
    c4546     Obj       47
    c4546     r454      1
    c4547     Obj       48
    c4547     r454      1
    c4548     Obj       49
    c4548     r454      1
    c4549     Obj       50
    c4549     r454      1
    c4550     Obj       51
    c4550     r454      1
    c4550     r455      1
    c4551     Obj       52
    c4551     r454      1
    c4551     r455      1
    c4552     Obj       53
    c4552     r454      1
    c4552     r455      1
    c4553     Obj       54
    c4553     r454      1
    c4553     r455      1
    c4554     Obj       55
    c4554     r454      1
    c4554     r455      1
    c4555     Obj       56
    c4555     r455      1
    c4556     Obj       57
    c4556     r455      1
    c4557     Obj       58
    c4557     r455      1
    c4558     Obj       59
    c4558     r455      1
    c4559     Obj       60
    c4559     r455      1
    c4560     Obj       61
    c4560     r455      1
    c4560     r456      1
    c4561     Obj       62
    c4561     r455      1
    c4561     r456      1
    c4562     Obj       63
    c4562     r455      1
    c4562     r456      1
    c4563     Obj       64
    c4563     r455      1
    c4563     r456      1
    c4564     Obj       65
    c4564     r455      1
    c4564     r456      1
    c4565     Obj       66
    c4565     r456      1
    c4566     Obj       67
    c4566     r456      1
    c4567     Obj       68
    c4567     r456      1
    c4568     Obj       69
    c4568     r456      1
    c4569     Obj       70
    c4569     r456      1
    c4570     Obj       71
    c4570     r456      1
    c4570     r457      1
    c4571     Obj       72
    c4571     r456      1
    c4571     r457      1
    c4572     Obj       73
    c4572     r456      1
    c4572     r457      1
    c4573     Obj       74
    c4573     r456      1
    c4573     r457      1
    c4574     Obj       75
    c4574     r456      1
    c4574     r457      1
    c4575     Obj       76
    c4575     r457      1
    c4576     Obj       77
    c4576     r457      1
    c4577     Obj       78
    c4577     r457      1
    c4578     Obj       79
    c4578     r457      1
    c4579     Obj       80
    c4579     r457      1
    c4580     Obj       81
    c4580     r457      1
    c4580     r458      1
    c4581     Obj       82
    c4581     r457      1
    c4581     r458      1
    c4582     Obj       83
    c4582     r457      1
    c4582     r458      1
    c4583     Obj       84
    c4583     r457      1
    c4583     r458      1
    c4584     Obj       85
    c4584     r457      1
    c4584     r458      1
    c4585     Obj       86
    c4585     r458      1
    c4586     Obj       87
    c4586     r458      1
    c4587     Obj       88
    c4587     r458      1
    c4588     Obj       89
    c4588     r458      1
    c4589     Obj       90
    c4589     r458      1
    c4590     Obj       91
    c4590     r458      1
    c4590     r459      1
    c4591     Obj       92
    c4591     r458      1
    c4591     r459      1
    c4592     Obj       93
    c4592     r458      1
    c4592     r459      1
    c4593     Obj       94
    c4593     r458      1
    c4593     r459      1
    c4594     Obj       95
    c4594     r458      1
    c4594     r459      1
    c4595     Obj       96
    c4595     r459      1
    c4596     Obj       97
    c4596     r459      1
    c4597     Obj       98
    c4597     r459      1
    c4598     Obj       99
    c4598     r459      1
    c4599     Obj       100
    c4599     r459      1
    c4600     Obj       1
    c4600     r459      1
    c4600     r460      1
    c4601     Obj       2
    c4601     r459      1
    c4601     r460      1
    c4602     Obj       3
    c4602     r459      1
    c4602     r460      1
    c4603     Obj       4
    c4603     r459      1
    c4603     r460      1
    c4604     Obj       5
    c4604     r459      1
    c4604     r460      1
    c4605     Obj       6
    c4605     r460      1
    c4606     Obj       7
    c4606     r460      1
    c4607     Obj       8
    c4607     r460      1
    c4608     Obj       9
    c4608     r460      1
    c4609     Obj       10
    c4609     r460      1
    c4610     Obj       11
    c4610     r460      1
    c4610     r461      1
    c4611     Obj       12
    c4611     r460      1
    c4611     r461      1
    c4612     Obj       13
    c4612     r460      1
    c4612     r461      1
    c4613     Obj       14
    c4613     r460      1
    c4613     r461      1
    c4614     Obj       15
    c4614     r460      1
    c4614     r461      1
    c4615     Obj       16
    c4615     r461      1
    c4616     Obj       17
    c4616     r461      1
    c4617     Obj       18
    c4617     r461      1
    c4618     Obj       19
    c4618     r461      1
    c4619     Obj       20
    c4619     r461      1
    c4620     Obj       21
    c4620     r461      1
    c4620     r462      1
    c4621     Obj       22
    c4621     r461      1
    c4621     r462      1
    c4622     Obj       23
    c4622     r461      1
    c4622     r462      1
    c4623     Obj       24
    c4623     r461      1
    c4623     r462      1
    c4624     Obj       25
    c4624     r461      1
    c4624     r462      1
    c4625     Obj       26
    c4625     r462      1
    c4626     Obj       27
    c4626     r462      1
    c4627     Obj       28
    c4627     r462      1
    c4628     Obj       29
    c4628     r462      1
    c4629     Obj       30
    c4629     r462      1
    c4630     Obj       31
    c4630     r462      1
    c4630     r463      1
    c4631     Obj       32
    c4631     r462      1
    c4631     r463      1
    c4632     Obj       33
    c4632     r462      1
    c4632     r463      1
    c4633     Obj       34
    c4633     r462      1
    c4633     r463      1
    c4634     Obj       35
    c4634     r462      1
    c4634     r463      1
    c4635     Obj       36
    c4635     r463      1
    c4636     Obj       37
    c4636     r463      1
    c4637     Obj       38
    c4637     r463      1
    c4638     Obj       39
    c4638     r463      1
    c4639     Obj       40
    c4639     r463      1
    c4640     Obj       41
    c4640     r463      1
    c4640     r464      1
    c4641     Obj       42
    c4641     r463      1
    c4641     r464      1
    c4642     Obj       43
    c4642     r463      1
    c4642     r464      1
    c4643     Obj       44
    c4643     r463      1
    c4643     r464      1
    c4644     Obj       45
    c4644     r463      1
    c4644     r464      1
    c4645     Obj       46
    c4645     r464      1
    c4646     Obj       47
    c4646     r464      1
    c4647     Obj       48
    c4647     r464      1
    c4648     Obj       49
    c4648     r464      1
    c4649     Obj       50
    c4649     r464      1
    c4650     Obj       51
    c4650     r464      1
    c4650     r465      1
    c4651     Obj       52
    c4651     r464      1
    c4651     r465      1
    c4652     Obj       53
    c4652     r464      1
    c4652     r465      1
    c4653     Obj       54
    c4653     r464      1
    c4653     r465      1
    c4654     Obj       55
    c4654     r464      1
    c4654     r465      1
    c4655     Obj       56
    c4655     r465      1
    c4656     Obj       57
    c4656     r465      1
    c4657     Obj       58
    c4657     r465      1
    c4658     Obj       59
    c4658     r465      1
    c4659     Obj       60
    c4659     r465      1
    c4660     Obj       61
    c4660     r465      1
    c4660     r466      1
    c4661     Obj       62
    c4661     r465      1
    c4661     r466      1
    c4662     Obj       63
    c4662     r465      1
    c4662     r466      1
    c4663     Obj       64
    c4663     r465      1
    c4663     r466      1
    c4664     Obj       65
    c4664     r465      1
    c4664     r466      1
    c4665     Obj       66
    c4665     r466      1
    c4666     Obj       67
    c4666     r466      1
    c4667     Obj       68
    c4667     r466      1
    c4668     Obj       69
    c4668     r466      1
    c4669     Obj       70
    c4669     r466      1
    c4670     Obj       71
    c4670     r466      1
    c4670     r467      1
    c4671     Obj       72
    c4671     r466      1
    c4671     r467      1
    c4672     Obj       73
    c4672     r466      1
    c4672     r467      1
    c4673     Obj       74
    c4673     r466      1
    c4673     r467      1
    c4674     Obj       75
    c4674     r466      1
    c4674     r467      1
    c4675     Obj       76
    c4675     r467      1
    c4676     Obj       77
    c4676     r467      1
    c4677     Obj       78
    c4677     r467      1
    c4678     Obj       79
    c4678     r467      1
    c4679     Obj       80
    c4679     r467      1
    c4680     Obj       81
    c4680     r467      1
    c4680     r468      1
    c4681     Obj       82
    c4681     r467      1
    c4681     r468      1
    c4682     Obj       83
    c4682     r467      1
    c4682     r468      1
    c4683     Obj       84
    c4683     r467      1
    c4683     r468      1
    c4684     Obj       85
    c4684     r467      1
    c4684     r468      1
    c4685     Obj       86
    c4685     r468      1
    c4686     Obj       87
    c4686     r468      1
    c4687     Obj       88
    c4687     r468      1
    c4688     Obj       89
    c4688     r468      1
    c4689     Obj       90
    c4689     r468      1
    c4690     Obj       91
    c4690     r468      1
    c4690     r469      1
    c4691     Obj       92
    c4691     r468      1
    c4691     r469      1
    c4692     Obj       93
    c4692     r468      1
    c4692     r469      1
    c4693     Obj       94
    c4693     r468      1
    c4693     r469      1
    c4694     Obj       95
    c4694     r468      1
    c4694     r469      1
    c4695     Obj       96
    c4695     r469      1
    c4696     Obj       97
    c4696     r469      1
    c4697     Obj       98
    c4697     r469      1
    c4698     Obj       99
    c4698     r469      1
    c4699     Obj       100
    c4699     r469      1
    c4700     Obj       1
    c4700     r469      1
    c4700     r470      1
    c4701     Obj       2
    c4701     r469      1
    c4701     r470      1
    c4702     Obj       3
    c4702     r469      1
    c4702     r470      1
    c4703     Obj       4
    c4703     r469      1
    c4703     r470      1
    c4704     Obj       5
    c4704     r469      1
    c4704     r470      1
    c4705     Obj       6
    c4705     r470      1
    c4706     Obj       7
    c4706     r470      1
    c4707     Obj       8
    c4707     r470      1
    c4708     Obj       9
    c4708     r470      1
    c4709     Obj       10
    c4709     r470      1
    c4710     Obj       11
    c4710     r470      1
    c4710     r471      1
    c4711     Obj       12
    c4711     r470      1
    c4711     r471      1
    c4712     Obj       13
    c4712     r470      1
    c4712     r471      1
    c4713     Obj       14
    c4713     r470      1
    c4713     r471      1
    c4714     Obj       15
    c4714     r470      1
    c4714     r471      1
    c4715     Obj       16
    c4715     r471      1
    c4716     Obj       17
    c4716     r471      1
    c4717     Obj       18
    c4717     r471      1
    c4718     Obj       19
    c4718     r471      1
    c4719     Obj       20
    c4719     r471      1
    c4720     Obj       21
    c4720     r471      1
    c4720     r472      1
    c4721     Obj       22
    c4721     r471      1
    c4721     r472      1
    c4722     Obj       23
    c4722     r471      1
    c4722     r472      1
    c4723     Obj       24
    c4723     r471      1
    c4723     r472      1
    c4724     Obj       25
    c4724     r471      1
    c4724     r472      1
    c4725     Obj       26
    c4725     r472      1
    c4726     Obj       27
    c4726     r472      1
    c4727     Obj       28
    c4727     r472      1
    c4728     Obj       29
    c4728     r472      1
    c4729     Obj       30
    c4729     r472      1
    c4730     Obj       31
    c4730     r472      1
    c4730     r473      1
    c4731     Obj       32
    c4731     r472      1
    c4731     r473      1
    c4732     Obj       33
    c4732     r472      1
    c4732     r473      1
    c4733     Obj       34
    c4733     r472      1
    c4733     r473      1
    c4734     Obj       35
    c4734     r472      1
    c4734     r473      1
    c4735     Obj       36
    c4735     r473      1
    c4736     Obj       37
    c4736     r473      1
    c4737     Obj       38
    c4737     r473      1
    c4738     Obj       39
    c4738     r473      1
    c4739     Obj       40
    c4739     r473      1
    c4740     Obj       41
    c4740     r473      1
    c4740     r474      1
    c4741     Obj       42
    c4741     r473      1
    c4741     r474      1
    c4742     Obj       43
    c4742     r473      1
    c4742     r474      1
    c4743     Obj       44
    c4743     r473      1
    c4743     r474      1
    c4744     Obj       45
    c4744     r473      1
    c4744     r474      1
    c4745     Obj       46
    c4745     r474      1
    c4746     Obj       47
    c4746     r474      1
    c4747     Obj       48
    c4747     r474      1
    c4748     Obj       49
    c4748     r474      1
    c4749     Obj       50
    c4749     r474      1
    c4750     Obj       51
    c4750     r474      1
    c4750     r475      1
    c4751     Obj       52
    c4751     r474      1
    c4751     r475      1
    c4752     Obj       53
    c4752     r474      1
    c4752     r475      1
    c4753     Obj       54
    c4753     r474      1
    c4753     r475      1
    c4754     Obj       55
    c4754     r474      1
    c4754     r475      1
    c4755     Obj       56
    c4755     r475      1
    c4756     Obj       57
    c4756     r475      1
    c4757     Obj       58
    c4757     r475      1
    c4758     Obj       59
    c4758     r475      1
    c4759     Obj       60
    c4759     r475      1
    c4760     Obj       61
    c4760     r475      1
    c4760     r476      1
    c4761     Obj       62
    c4761     r475      1
    c4761     r476      1
    c4762     Obj       63
    c4762     r475      1
    c4762     r476      1
    c4763     Obj       64
    c4763     r475      1
    c4763     r476      1
    c4764     Obj       65
    c4764     r475      1
    c4764     r476      1
    c4765     Obj       66
    c4765     r476      1
    c4766     Obj       67
    c4766     r476      1
    c4767     Obj       68
    c4767     r476      1
    c4768     Obj       69
    c4768     r476      1
    c4769     Obj       70
    c4769     r476      1
    c4770     Obj       71
    c4770     r476      1
    c4770     r477      1
    c4771     Obj       72
    c4771     r476      1
    c4771     r477      1
    c4772     Obj       73
    c4772     r476      1
    c4772     r477      1
    c4773     Obj       74
    c4773     r476      1
    c4773     r477      1
    c4774     Obj       75
    c4774     r476      1
    c4774     r477      1
    c4775     Obj       76
    c4775     r477      1
    c4776     Obj       77
    c4776     r477      1
    c4777     Obj       78
    c4777     r477      1
    c4778     Obj       79
    c4778     r477      1
    c4779     Obj       80
    c4779     r477      1
    c4780     Obj       81
    c4780     r477      1
    c4780     r478      1
    c4781     Obj       82
    c4781     r477      1
    c4781     r478      1
    c4782     Obj       83
    c4782     r477      1
    c4782     r478      1
    c4783     Obj       84
    c4783     r477      1
    c4783     r478      1
    c4784     Obj       85
    c4784     r477      1
    c4784     r478      1
    c4785     Obj       86
    c4785     r478      1
    c4786     Obj       87
    c4786     r478      1
    c4787     Obj       88
    c4787     r478      1
    c4788     Obj       89
    c4788     r478      1
    c4789     Obj       90
    c4789     r478      1
    c4790     Obj       91
    c4790     r478      1
    c4790     r479      1
    c4791     Obj       92
    c4791     r478      1
    c4791     r479      1
    c4792     Obj       93
    c4792     r478      1
    c4792     r479      1
    c4793     Obj       94
    c4793     r478      1
    c4793     r479      1
    c4794     Obj       95
    c4794     r478      1
    c4794     r479      1
    c4795     Obj       96
    c4795     r479      1
    c4796     Obj       97
    c4796     r479      1
    c4797     Obj       98
    c4797     r479      1
    c4798     Obj       99
    c4798     r479      1
    c4799     Obj       100
    c4799     r479      1
    c4800     Obj       1
    c4800     r479      1
    c4800     r480      1
    c4801     Obj       2
    c4801     r479      1
    c4801     r480      1
    c4802     Obj       3
    c4802     r479      1
    c4802     r480      1
    c4803     Obj       4
    c4803     r479      1
    c4803     r480      1
    c4804     Obj       5
    c4804     r479      1
    c4804     r480      1
    c4805     Obj       6
    c4805     r480      1
    c4806     Obj       7
    c4806     r480      1
    c4807     Obj       8
    c4807     r480      1
    c4808     Obj       9
    c4808     r480      1
    c4809     Obj       10
    c4809     r480      1
    c4810     Obj       11
    c4810     r480      1
    c4810     r481      1
    c4811     Obj       12
    c4811     r480      1
    c4811     r481      1
    c4812     Obj       13
    c4812     r480      1
    c4812     r481      1
    c4813     Obj       14
    c4813     r480      1
    c4813     r481      1
    c4814     Obj       15
    c4814     r480      1
    c4814     r481      1
    c4815     Obj       16
    c4815     r481      1
    c4816     Obj       17
    c4816     r481      1
    c4817     Obj       18
    c4817     r481      1
    c4818     Obj       19
    c4818     r481      1
    c4819     Obj       20
    c4819     r481      1
    c4820     Obj       21
    c4820     r481      1
    c4820     r482      1
    c4821     Obj       22
    c4821     r481      1
    c4821     r482      1
    c4822     Obj       23
    c4822     r481      1
    c4822     r482      1
    c4823     Obj       24
    c4823     r481      1
    c4823     r482      1
    c4824     Obj       25
    c4824     r481      1
    c4824     r482      1
    c4825     Obj       26
    c4825     r482      1
    c4826     Obj       27
    c4826     r482      1
    c4827     Obj       28
    c4827     r482      1
    c4828     Obj       29
    c4828     r482      1
    c4829     Obj       30
    c4829     r482      1
    c4830     Obj       31
    c4830     r482      1
    c4830     r483      1
    c4831     Obj       32
    c4831     r482      1
    c4831     r483      1
    c4832     Obj       33
    c4832     r482      1
    c4832     r483      1
    c4833     Obj       34
    c4833     r482      1
    c4833     r483      1
    c4834     Obj       35
    c4834     r482      1
    c4834     r483      1
    c4835     Obj       36
    c4835     r483      1
    c4836     Obj       37
    c4836     r483      1
    c4837     Obj       38
    c4837     r483      1
    c4838     Obj       39
    c4838     r483      1
    c4839     Obj       40
    c4839     r483      1
    c4840     Obj       41
    c4840     r483      1
    c4840     r484      1
    c4841     Obj       42
    c4841     r483      1
    c4841     r484      1
    c4842     Obj       43
    c4842     r483      1
    c4842     r484      1
    c4843     Obj       44
    c4843     r483      1
    c4843     r484      1
    c4844     Obj       45
    c4844     r483      1
    c4844     r484      1
    c4845     Obj       46
    c4845     r484      1
    c4846     Obj       47
    c4846     r484      1
    c4847     Obj       48
    c4847     r484      1
    c4848     Obj       49
    c4848     r484      1
    c4849     Obj       50
    c4849     r484      1
    c4850     Obj       51
    c4850     r484      1
    c4850     r485      1
    c4851     Obj       52
    c4851     r484      1
    c4851     r485      1
    c4852     Obj       53
    c4852     r484      1
    c4852     r485      1
    c4853     Obj       54
    c4853     r484      1
    c4853     r485      1
    c4854     Obj       55
    c4854     r484      1
    c4854     r485      1
    c4855     Obj       56
    c4855     r485      1
    c4856     Obj       57
    c4856     r485      1
    c4857     Obj       58
    c4857     r485      1
    c4858     Obj       59
    c4858     r485      1
    c4859     Obj       60
    c4859     r485      1
    c4860     Obj       61
    c4860     r485      1
    c4860     r486      1
    c4861     Obj       62
    c4861     r485      1
    c4861     r486      1
    c4862     Obj       63
    c4862     r485      1
    c4862     r486      1
    c4863     Obj       64
    c4863     r485      1
    c4863     r486      1
    c4864     Obj       65
    c4864     r485      1
    c4864     r486      1
    c4865     Obj       66
    c4865     r486      1
    c4866     Obj       67
    c4866     r486      1
    c4867     Obj       68
    c4867     r486      1
    c4868     Obj       69
    c4868     r486      1
    c4869     Obj       70
    c4869     r486      1
    c4870     Obj       71
    c4870     r486      1
    c4870     r487      1
    c4871     Obj       72
    c4871     r486      1
    c4871     r487      1
    c4872     Obj       73
    c4872     r486      1
    c4872     r487      1
    c4873     Obj       74
    c4873     r486      1
    c4873     r487      1
    c4874     Obj       75
    c4874     r486      1
    c4874     r487      1
    c4875     Obj       76
    c4875     r487      1
    c4876     Obj       77
    c4876     r487      1
    c4877     Obj       78
    c4877     r487      1
    c4878     Obj       79
    c4878     r487      1
    c4879     Obj       80
    c4879     r487      1
    c4880     Obj       81
    c4880     r487      1
    c4880     r488      1
    c4881     Obj       82
    c4881     r487      1
    c4881     r488      1
    c4882     Obj       83
    c4882     r487      1
    c4882     r488      1
    c4883     Obj       84
    c4883     r487      1
    c4883     r488      1
    c4884     Obj       85
    c4884     r487      1
    c4884     r488      1
    c4885     Obj       86
    c4885     r488      1
    c4886     Obj       87
    c4886     r488      1
    c4887     Obj       88
    c4887     r488      1
    c4888     Obj       89
    c4888     r488      1
    c4889     Obj       90
    c4889     r488      1
    c4890     Obj       91
    c4890     r488      1
    c4890     r489      1
    c4891     Obj       92
    c4891     r488      1
    c4891     r489      1
    c4892     Obj       93
    c4892     r488      1
    c4892     r489      1
    c4893     Obj       94
    c4893     r488      1
    c4893     r489      1
    c4894     Obj       95
    c4894     r488      1
    c4894     r489      1
    c4895     Obj       96
    c4895     r489      1
    c4896     Obj       97
    c4896     r489      1
    c4897     Obj       98
    c4897     r489      1
    c4898     Obj       99
    c4898     r489      1
    c4899     Obj       100
    c4899     r489      1
    c4900     Obj       1
    c4900     r489      1
    c4900     r490      1
    c4901     Obj       2
    c4901     r489      1
    c4901     r490      1
    c4902     Obj       3
    c4902     r489      1
    c4902     r490      1
    c4903     Obj       4
    c4903     r489      1
    c4903     r490      1
    c4904     Obj       5
    c4904     r489      1
    c4904     r490      1
    c4905     Obj       6
    c4905     r490      1
    c4906     Obj       7
    c4906     r490      1
    c4907     Obj       8
    c4907     r490      1
    c4908     Obj       9
    c4908     r490      1
    c4909     Obj       10
    c4909     r490      1
    c4910     Obj       11
    c4910     r490      1
    c4910     r491      1
    c4911     Obj       12
    c4911     r490      1
    c4911     r491      1
    c4912     Obj       13
    c4912     r490      1
    c4912     r491      1
    c4913     Obj       14
    c4913     r490      1
    c4913     r491      1
    c4914     Obj       15
    c4914     r490      1
    c4914     r491      1
    c4915     Obj       16
    c4915     r491      1
    c4916     Obj       17
    c4916     r491      1
    c4917     Obj       18
    c4917     r491      1
    c4918     Obj       19
    c4918     r491      1
    c4919     Obj       20
    c4919     r491      1
    c4920     Obj       21
    c4920     r491      1
    c4920     r492      1
    c4921     Obj       22
    c4921     r491      1
    c4921     r492      1
    c4922     Obj       23
    c4922     r491      1
    c4922     r492      1
    c4923     Obj       24
    c4923     r491      1
    c4923     r492      1
    c4924     Obj       25
    c4924     r491      1
    c4924     r492      1
    c4925     Obj       26
    c4925     r492      1
    c4926     Obj       27
    c4926     r492      1
    c4927     Obj       28
    c4927     r492      1
    c4928     Obj       29
    c4928     r492      1
    c4929     Obj       30
    c4929     r492      1
    c4930     Obj       31
    c4930     r492      1
    c4930     r493      1
    c4931     Obj       32
    c4931     r492      1
    c4931     r493      1
    c4932     Obj       33
    c4932     r492      1
    c4932     r493      1
    c4933     Obj       34
    c4933     r492      1
    c4933     r493      1
    c4934     Obj       35
    c4934     r492      1
    c4934     r493      1
    c4935     Obj       36
    c4935     r493      1
    c4936     Obj       37
    c4936     r493      1
    c4937     Obj       38
    c4937     r493      1
    c4938     Obj       39
    c4938     r493      1
    c4939     Obj       40
    c4939     r493      1
    c4940     Obj       41
    c4940     r493      1
    c4940     r494      1
    c4941     Obj       42
    c4941     r493      1
    c4941     r494      1
    c4942     Obj       43
    c4942     r493      1
    c4942     r494      1
    c4943     Obj       44
    c4943     r493      1
    c4943     r494      1
    c4944     Obj       45
    c4944     r493      1
    c4944     r494      1
    c4945     Obj       46
    c4945     r494      1
    c4946     Obj       47
    c4946     r494      1
    c4947     Obj       48
    c4947     r494      1
    c4948     Obj       49
    c4948     r494      1
    c4949     Obj       50
    c4949     r494      1
    c4950     Obj       51
    c4950     r494      1
    c4950     r495      1
    c4951     Obj       52
    c4951     r494      1
    c4951     r495      1
    c4952     Obj       53
    c4952     r494      1
    c4952     r495      1
    c4953     Obj       54
    c4953     r494      1
    c4953     r495      1
    c4954     Obj       55
    c4954     r494      1
    c4954     r495      1
    c4955     Obj       56
    c4955     r495      1
    c4956     Obj       57
    c4956     r495      1
    c4957     Obj       58
    c4957     r495      1
    c4958     Obj       59
    c4958     r495      1
    c4959     Obj       60
    c4959     r495      1
    c4960     Obj       61
    c4960     r495      1
    c4960     r496      1
    c4961     Obj       62
    c4961     r495      1
    c4961     r496      1
    c4962     Obj       63
    c4962     r495      1
    c4962     r496      1
    c4963     Obj       64
    c4963     r495      1
    c4963     r496      1
    c4964     Obj       65
    c4964     r495      1
    c4964     r496      1
    c4965     Obj       66
    c4965     r496      1
    c4966     Obj       67
    c4966     r496      1
    c4967     Obj       68
    c4967     r496      1
    c4968     Obj       69
    c4968     r496      1
    c4969     Obj       70
    c4969     r496      1
    c4970     Obj       71
    c4970     r496      1
    c4970     r497      1
    c4971     Obj       72
    c4971     r496      1
    c4971     r497      1
    c4972     Obj       73
    c4972     r496      1
    c4972     r497      1
    c4973     Obj       74
    c4973     r496      1
    c4973     r497      1
    c4974     Obj       75
    c4974     r496      1
    c4974     r497      1
    c4975     Obj       76
    c4975     r497      1
    c4976     Obj       77
    c4976     r497      1
    c4977     Obj       78
    c4977     r497      1
    c4978     Obj       79
    c4978     r497      1
    c4979     Obj       80
    c4979     r497      1
    c4980     Obj       81
    c4980     r497      1
    c4980     r498      1
    c4981     Obj       82
    c4981     r497      1
    c4981     r498      1
    c4982     Obj       83
    c4982     r497      1
    c4982     r498      1
    c4983     Obj       84
    c4983     r497      1
    c4983     r498      1
    c4984     Obj       85
    c4984     r497      1
    c4984     r498      1
    c4985     Obj       86
    c4985     r498      1
    c4986     Obj       87
    c4986     r498      1
    c4987     Obj       88
    c4987     r498      1
    c4988     Obj       89
    c4988     r498      1
    c4989     Obj       90
    c4989     r498      1
    c4990     Obj       91
    c4990     r498      1
    c4990     r499      1
    c4991     Obj       92
    c4991     r498      1
    c4991     r499      1
    c4992     Obj       93
    c4992     r498      1
    c4992     r499      1
    c4993     Obj       94
    c4993     r498      1
    c4993     r499      1
    c4994     Obj       95
    c4994     r498      1
    c4994     r499      1
    c4995     Obj       96
    c4995     r499      1
    c4996     Obj       97
    c4996     r499      1
    c4997     Obj       98
    c4997     r499      1
    c4998     Obj       99
    c4998     r499      1
    c4999     Obj       100
    c4999     r499      1
    c5000     Obj       1
    c5000     r499      1
    c5000     r500      1
    c5001     Obj       2
    c5001     r499      1
    c5001     r500      1
    c5002     Obj       3
    c5002     r499      1
    c5002     r500      1
    c5003     Obj       4
    c5003     r499      1
    c5003     r500      1
    c5004     Obj       5
    c5004     r499      1
    c5004     r500      1
    c5005     Obj       6
    c5005     r500      1
    c5006     Obj       7
    c5006     r500      1
    c5007     Obj       8
    c5007     r500      1
    c5008     Obj       9
    c5008     r500      1
    c5009     Obj       10
    c5009     r500      1
    c5010     Obj       11
    c5010     r500      1
    c5010     r501      1
    c5011     Obj       12
    c5011     r500      1
    c5011     r501      1
    c5012     Obj       13
    c5012     r500      1
    c5012     r501      1
    c5013     Obj       14
    c5013     r500      1
    c5013     r501      1
    c5014     Obj       15
    c5014     r500      1
    c5014     r501      1
    c5015     Obj       16
    c5015     r501      1
    c5016     Obj       17
    c5016     r501      1
    c5017     Obj       18
    c5017     r501      1
    c5018     Obj       19
    c5018     r501      1
    c5019     Obj       20
    c5019     r501      1
    c5020     Obj       21
    c5020     r501      1
    c5020     r502      1
    c5021     Obj       22
    c5021     r501      1
    c5021     r502      1
    c5022     Obj       23
    c5022     r501      1
    c5022     r502      1
    c5023     Obj       24
    c5023     r501      1
    c5023     r502      1
    c5024     Obj       25
    c5024     r501      1
    c5024     r502      1
    c5025     Obj       26
    c5025     r502      1
    c5026     Obj       27
    c5026     r502      1
    c5027     Obj       28
    c5027     r502      1
    c5028     Obj       29
    c5028     r502      1
    c5029     Obj       30
    c5029     r502      1
    c5030     Obj       31
    c5030     r502      1
    c5030     r503      1
    c5031     Obj       32
    c5031     r502      1
    c5031     r503      1
    c5032     Obj       33
    c5032     r502      1
    c5032     r503      1
    c5033     Obj       34
    c5033     r502      1
    c5033     r503      1
    c5034     Obj       35
    c5034     r502      1
    c5034     r503      1
    c5035     Obj       36
    c5035     r503      1
    c5036     Obj       37
    c5036     r503      1
    c5037     Obj       38
    c5037     r503      1
    c5038     Obj       39
    c5038     r503      1
    c5039     Obj       40
    c5039     r503      1
    c5040     Obj       41
    c5040     r503      1
    c5040     r504      1
    c5041     Obj       42
    c5041     r503      1
    c5041     r504      1
    c5042     Obj       43
    c5042     r503      1
    c5042     r504      1
    c5043     Obj       44
    c5043     r503      1
    c5043     r504      1
    c5044     Obj       45
    c5044     r503      1
    c5044     r504      1
    c5045     Obj       46
    c5045     r504      1
    c5046     Obj       47
    c5046     r504      1
    c5047     Obj       48
    c5047     r504      1
    c5048     Obj       49
    c5048     r504      1
    c5049     Obj       50
    c5049     r504      1
    c5050     Obj       51
    c5050     r504      1
    c5050     r505      1
    c5051     Obj       52
    c5051     r504      1
    c5051     r505      1
    c5052     Obj       53
    c5052     r504      1
    c5052     r505      1
    c5053     Obj       54
    c5053     r504      1
    c5053     r505      1
    c5054     Obj       55
    c5054     r504      1
    c5054     r505      1
    c5055     Obj       56
    c5055     r505      1
    c5056     Obj       57
    c5056     r505      1
    c5057     Obj       58
    c5057     r505      1
    c5058     Obj       59
    c5058     r505      1
    c5059     Obj       60
    c5059     r505      1
    c5060     Obj       61
    c5060     r505      1
    c5060     r506      1
    c5061     Obj       62
    c5061     r505      1
    c5061     r506      1
    c5062     Obj       63
    c5062     r505      1
    c5062     r506      1
    c5063     Obj       64
    c5063     r505      1
    c5063     r506      1
    c5064     Obj       65
    c5064     r505      1
    c5064     r506      1
    c5065     Obj       66
    c5065     r506      1
    c5066     Obj       67
    c5066     r506      1
    c5067     Obj       68
    c5067     r506      1
    c5068     Obj       69
    c5068     r506      1
    c5069     Obj       70
    c5069     r506      1
    c5070     Obj       71
    c5070     r506      1
    c5070     r507      1
    c5071     Obj       72
    c5071     r506      1
    c5071     r507      1
    c5072     Obj       73
    c5072     r506      1
    c5072     r507      1
    c5073     Obj       74
    c5073     r506      1
    c5073     r507      1
    c5074     Obj       75
    c5074     r506      1
    c5074     r507      1
    c5075     Obj       76
    c5075     r507      1
    c5076     Obj       77
    c5076     r507      1
    c5077     Obj       78
    c5077     r507      1
    c5078     Obj       79
    c5078     r507      1
    c5079     Obj       80
    c5079     r507      1
    c5080     Obj       81
    c5080     r507      1
    c5080     r508      1
    c5081     Obj       82
    c5081     r507      1
    c5081     r508      1
    c5082     Obj       83
    c5082     r507      1
    c5082     r508      1
    c5083     Obj       84
    c5083     r507      1
    c5083     r508      1
    c5084     Obj       85
    c5084     r507      1
    c5084     r508      1
    c5085     Obj       86
    c5085     r508      1
    c5086     Obj       87
    c5086     r508      1
    c5087     Obj       88
    c5087     r508      1
    c5088     Obj       89
    c5088     r508      1
    c5089     Obj       90
    c5089     r508      1
    c5090     Obj       91
    c5090     r508      1
    c5090     r509      1
    c5091     Obj       92
    c5091     r508      1
    c5091     r509      1
    c5092     Obj       93
    c5092     r508      1
    c5092     r509      1
    c5093     Obj       94
    c5093     r508      1
    c5093     r509      1
    c5094     Obj       95
    c5094     r508      1
    c5094     r509      1
    c5095     Obj       96
    c5095     r509      1
    c5096     Obj       97
    c5096     r509      1
    c5097     Obj       98
    c5097     r509      1
    c5098     Obj       99
    c5098     r509      1
    c5099     Obj       100
    c5099     r509      1
    c5100     Obj       1
    c5100     r509      1
    c5100     r510      1
    c5101     Obj       2
    c5101     r509      1
    c5101     r510      1
    c5102     Obj       3
    c5102     r509      1
    c5102     r510      1
    c5103     Obj       4
    c5103     r509      1
    c5103     r510      1
    c5104     Obj       5
    c5104     r509      1
    c5104     r510      1
    c5105     Obj       6
    c5105     r510      1
    c5106     Obj       7
    c5106     r510      1
    c5107     Obj       8
    c5107     r510      1
    c5108     Obj       9
    c5108     r510      1
    c5109     Obj       10
    c5109     r510      1
    c5110     Obj       11
    c5110     r510      1
    c5110     r511      1
    c5111     Obj       12
    c5111     r510      1
    c5111     r511      1
    c5112     Obj       13
    c5112     r510      1
    c5112     r511      1
    c5113     Obj       14
    c5113     r510      1
    c5113     r511      1
    c5114     Obj       15
    c5114     r510      1
    c5114     r511      1
    c5115     Obj       16
    c5115     r511      1
    c5116     Obj       17
    c5116     r511      1
    c5117     Obj       18
    c5117     r511      1
    c5118     Obj       19
    c5118     r511      1
    c5119     Obj       20
    c5119     r511      1
    c5120     Obj       21
    c5120     r511      1
    c5120     r512      1
    c5121     Obj       22
    c5121     r511      1
    c5121     r512      1
    c5122     Obj       23
    c5122     r511      1
    c5122     r512      1
    c5123     Obj       24
    c5123     r511      1
    c5123     r512      1
    c5124     Obj       25
    c5124     r511      1
    c5124     r512      1
    c5125     Obj       26
    c5125     r512      1
    c5126     Obj       27
    c5126     r512      1
    c5127     Obj       28
    c5127     r512      1
    c5128     Obj       29
    c5128     r512      1
    c5129     Obj       30
    c5129     r512      1
    c5130     Obj       31
    c5130     r512      1
    c5130     r513      1
    c5131     Obj       32
    c5131     r512      1
    c5131     r513      1
    c5132     Obj       33
    c5132     r512      1
    c5132     r513      1
    c5133     Obj       34
    c5133     r512      1
    c5133     r513      1
    c5134     Obj       35
    c5134     r512      1
    c5134     r513      1
    c5135     Obj       36
    c5135     r513      1
    c5136     Obj       37
    c5136     r513      1
    c5137     Obj       38
    c5137     r513      1
    c5138     Obj       39
    c5138     r513      1
    c5139     Obj       40
    c5139     r513      1
    c5140     Obj       41
    c5140     r513      1
    c5140     r514      1
    c5141     Obj       42
    c5141     r513      1
    c5141     r514      1
    c5142     Obj       43
    c5142     r513      1
    c5142     r514      1
    c5143     Obj       44
    c5143     r513      1
    c5143     r514      1
    c5144     Obj       45
    c5144     r513      1
    c5144     r514      1
    c5145     Obj       46
    c5145     r514      1
    c5146     Obj       47
    c5146     r514      1
    c5147     Obj       48
    c5147     r514      1
    c5148     Obj       49
    c5148     r514      1
    c5149     Obj       50
    c5149     r514      1
    c5150     Obj       51
    c5150     r514      1
    c5150     r515      1
    c5151     Obj       52
    c5151     r514      1
    c5151     r515      1
    c5152     Obj       53
    c5152     r514      1
    c5152     r515      1
    c5153     Obj       54
    c5153     r514      1
    c5153     r515      1
    c5154     Obj       55
    c5154     r514      1
    c5154     r515      1
    c5155     Obj       56
    c5155     r515      1
    c5156     Obj       57
    c5156     r515      1
    c5157     Obj       58
    c5157     r515      1
    c5158     Obj       59
    c5158     r515      1
    c5159     Obj       60
    c5159     r515      1
    c5160     Obj       61
    c5160     r515      1
    c5160     r516      1
    c5161     Obj       62
    c5161     r515      1
    c5161     r516      1
    c5162     Obj       63
    c5162     r515      1
    c5162     r516      1
    c5163     Obj       64
    c5163     r515      1
    c5163     r516      1
    c5164     Obj       65
    c5164     r515      1
    c5164     r516      1
    c5165     Obj       66
    c5165     r516      1
    c5166     Obj       67
    c5166     r516      1
    c5167     Obj       68
    c5167     r516      1
    c5168     Obj       69
    c5168     r516      1
    c5169     Obj       70
    c5169     r516      1
    c5170     Obj       71
    c5170     r516      1
    c5170     r517      1
    c5171     Obj       72
    c5171     r516      1
    c5171     r517      1
    c5172     Obj       73
    c5172     r516      1
    c5172     r517      1
    c5173     Obj       74
    c5173     r516      1
    c5173     r517      1
    c5174     Obj       75
    c5174     r516      1
    c5174     r517      1
    c5175     Obj       76
    c5175     r517      1
    c5176     Obj       77
    c5176     r517      1
    c5177     Obj       78
    c5177     r517      1
    c5178     Obj       79
    c5178     r517      1
    c5179     Obj       80
    c5179     r517      1
    c5180     Obj       81
    c5180     r517      1
    c5180     r518      1
    c5181     Obj       82
    c5181     r517      1
    c5181     r518      1
    c5182     Obj       83
    c5182     r517      1
    c5182     r518      1
    c5183     Obj       84
    c5183     r517      1
    c5183     r518      1
    c5184     Obj       85
    c5184     r517      1
    c5184     r518      1
    c5185     Obj       86
    c5185     r518      1
    c5186     Obj       87
    c5186     r518      1
    c5187     Obj       88
    c5187     r518      1
    c5188     Obj       89
    c5188     r518      1
    c5189     Obj       90
    c5189     r518      1
    c5190     Obj       91
    c5190     r518      1
    c5190     r519      1
    c5191     Obj       92
    c5191     r518      1
    c5191     r519      1
    c5192     Obj       93
    c5192     r518      1
    c5192     r519      1
    c5193     Obj       94
    c5193     r518      1
    c5193     r519      1
    c5194     Obj       95
    c5194     r518      1
    c5194     r519      1
    c5195     Obj       96
    c5195     r519      1
    c5196     Obj       97
    c5196     r519      1
    c5197     Obj       98
    c5197     r519      1
    c5198     Obj       99
    c5198     r519      1
    c5199     Obj       100
    c5199     r519      1
    c5200     Obj       1
    c5200     r519      1
    c5200     r520      1
    c5201     Obj       2
    c5201     r519      1
    c5201     r520      1
    c5202     Obj       3
    c5202     r519      1
    c5202     r520      1
    c5203     Obj       4
    c5203     r519      1
    c5203     r520      1
    c5204     Obj       5
    c5204     r519      1
    c5204     r520      1
    c5205     Obj       6
    c5205     r520      1
    c5206     Obj       7
    c5206     r520      1
    c5207     Obj       8
    c5207     r520      1
    c5208     Obj       9
    c5208     r520      1
    c5209     Obj       10
    c5209     r520      1
    c5210     Obj       11
    c5210     r520      1
    c5210     r521      1
    c5211     Obj       12
    c5211     r520      1
    c5211     r521      1
    c5212     Obj       13
    c5212     r520      1
    c5212     r521      1
    c5213     Obj       14
    c5213     r520      1
    c5213     r521      1
    c5214     Obj       15
    c5214     r520      1
    c5214     r521      1
    c5215     Obj       16
    c5215     r521      1
    c5216     Obj       17
    c5216     r521      1
    c5217     Obj       18
    c5217     r521      1
    c5218     Obj       19
    c5218     r521      1
    c5219     Obj       20
    c5219     r521      1
    c5220     Obj       21
    c5220     r521      1
    c5220     r522      1
    c5221     Obj       22
    c5221     r521      1
    c5221     r522      1
    c5222     Obj       23
    c5222     r521      1
    c5222     r522      1
    c5223     Obj       24
    c5223     r521      1
    c5223     r522      1
    c5224     Obj       25
    c5224     r521      1
    c5224     r522      1
    c5225     Obj       26
    c5225     r522      1
    c5226     Obj       27
    c5226     r522      1
    c5227     Obj       28
    c5227     r522      1
    c5228     Obj       29
    c5228     r522      1
    c5229     Obj       30
    c5229     r522      1
    c5230     Obj       31
    c5230     r522      1
    c5230     r523      1
    c5231     Obj       32
    c5231     r522      1
    c5231     r523      1
    c5232     Obj       33
    c5232     r522      1
    c5232     r523      1
    c5233     Obj       34
    c5233     r522      1
    c5233     r523      1
    c5234     Obj       35
    c5234     r522      1
    c5234     r523      1
    c5235     Obj       36
    c5235     r523      1
    c5236     Obj       37
    c5236     r523      1
    c5237     Obj       38
    c5237     r523      1
    c5238     Obj       39
    c5238     r523      1
    c5239     Obj       40
    c5239     r523      1
    c5240     Obj       41
    c5240     r523      1
    c5240     r524      1
    c5241     Obj       42
    c5241     r523      1
    c5241     r524      1
    c5242     Obj       43
    c5242     r523      1
    c5242     r524      1
    c5243     Obj       44
    c5243     r523      1
    c5243     r524      1
    c5244     Obj       45
    c5244     r523      1
    c5244     r524      1
    c5245     Obj       46
    c5245     r524      1
    c5246     Obj       47
    c5246     r524      1
    c5247     Obj       48
    c5247     r524      1
    c5248     Obj       49
    c5248     r524      1
    c5249     Obj       50
    c5249     r524      1
    c5250     Obj       51
    c5250     r524      1
    c5250     r525      1
    c5251     Obj       52
    c5251     r524      1
    c5251     r525      1
    c5252     Obj       53
    c5252     r524      1
    c5252     r525      1
    c5253     Obj       54
    c5253     r524      1
    c5253     r525      1
    c5254     Obj       55
    c5254     r524      1
    c5254     r525      1
    c5255     Obj       56
    c5255     r525      1
    c5256     Obj       57
    c5256     r525      1
    c5257     Obj       58
    c5257     r525      1
    c5258     Obj       59
    c5258     r525      1
    c5259     Obj       60
    c5259     r525      1
    c5260     Obj       61
    c5260     r525      1
    c5260     r526      1
    c5261     Obj       62
    c5261     r525      1
    c5261     r526      1
    c5262     Obj       63
    c5262     r525      1
    c5262     r526      1
    c5263     Obj       64
    c5263     r525      1
    c5263     r526      1
    c5264     Obj       65
    c5264     r525      1
    c5264     r526      1
    c5265     Obj       66
    c5265     r526      1
    c5266     Obj       67
    c5266     r526      1
    c5267     Obj       68
    c5267     r526      1
    c5268     Obj       69
    c5268     r526      1
    c5269     Obj       70
    c5269     r526      1
    c5270     Obj       71
    c5270     r526      1
    c5270     r527      1
    c5271     Obj       72
    c5271     r526      1
    c5271     r527      1
    c5272     Obj       73
    c5272     r526      1
    c5272     r527      1
    c5273     Obj       74
    c5273     r526      1
    c5273     r527      1
    c5274     Obj       75
    c5274     r526      1
    c5274     r527      1
    c5275     Obj       76
    c5275     r527      1
    c5276     Obj       77
    c5276     r527      1
    c5277     Obj       78
    c5277     r527      1
    c5278     Obj       79
    c5278     r527      1
    c5279     Obj       80
    c5279     r527      1
    c5280     Obj       81
    c5280     r527      1
    c5280     r528      1
    c5281     Obj       82
    c5281     r527      1
    c5281     r528      1
    c5282     Obj       83
    c5282     r527      1
    c5282     r528      1
    c5283     Obj       84
    c5283     r527      1
    c5283     r528      1
    c5284     Obj       85
    c5284     r527      1
    c5284     r528      1
    c5285     Obj       86
    c5285     r528      1
    c5286     Obj       87
    c5286     r528      1
    c5287     Obj       88
    c5287     r528      1
    c5288     Obj       89
    c5288     r528      1
    c5289     Obj       90
    c5289     r528      1
    c5290     Obj       91
    c5290     r528      1
    c5290     r529      1
    c5291     Obj       92
    c5291     r528      1
    c5291     r529      1
    c5292     Obj       93
    c5292     r528      1
    c5292     r529      1
    c5293     Obj       94
    c5293     r528      1
    c5293     r529      1
    c5294     Obj       95
    c5294     r528      1
    c5294     r529      1
    c5295     Obj       96
    c5295     r529      1
    c5296     Obj       97
    c5296     r529      1
    c5297     Obj       98
    c5297     r529      1
    c5298     Obj       99
    c5298     r529      1
    c5299     Obj       100
    c5299     r529      1
    c5300     Obj       1
    c5300     r529      1
    c5300     r530      1
    c5301     Obj       2
    c5301     r529      1
    c5301     r530      1
    c5302     Obj       3
    c5302     r529      1
    c5302     r530      1
    c5303     Obj       4
    c5303     r529      1
    c5303     r530      1
    c5304     Obj       5
    c5304     r529      1
    c5304     r530      1
    c5305     Obj       6
    c5305     r530      1
    c5306     Obj       7
    c5306     r530      1
    c5307     Obj       8
    c5307     r530      1
    c5308     Obj       9
    c5308     r530      1
    c5309     Obj       10
    c5309     r530      1
    c5310     Obj       11
    c5310     r530      1
    c5310     r531      1
    c5311     Obj       12
    c5311     r530      1
    c5311     r531      1
    c5312     Obj       13
    c5312     r530      1
    c5312     r531      1
    c5313     Obj       14
    c5313     r530      1
    c5313     r531      1
    c5314     Obj       15
    c5314     r530      1
    c5314     r531      1
    c5315     Obj       16
    c5315     r531      1
    c5316     Obj       17
    c5316     r531      1
    c5317     Obj       18
    c5317     r531      1
    c5318     Obj       19
    c5318     r531      1
    c5319     Obj       20
    c5319     r531      1
    c5320     Obj       21
    c5320     r531      1
    c5320     r532      1
    c5321     Obj       22
    c5321     r531      1
    c5321     r532      1
    c5322     Obj       23
    c5322     r531      1
    c5322     r532      1
    c5323     Obj       24
    c5323     r531      1
    c5323     r532      1
    c5324     Obj       25
    c5324     r531      1
    c5324     r532      1
    c5325     Obj       26
    c5325     r532      1
    c5326     Obj       27
    c5326     r532      1
    c5327     Obj       28
    c5327     r532      1
    c5328     Obj       29
    c5328     r532      1
    c5329     Obj       30
    c5329     r532      1
    c5330     Obj       31
    c5330     r532      1
    c5330     r533      1
    c5331     Obj       32
    c5331     r532      1
    c5331     r533      1
    c5332     Obj       33
    c5332     r532      1
    c5332     r533      1
    c5333     Obj       34
    c5333     r532      1
    c5333     r533      1
    c5334     Obj       35
    c5334     r532      1
    c5334     r533      1
    c5335     Obj       36
    c5335     r533      1
    c5336     Obj       37
    c5336     r533      1
    c5337     Obj       38
    c5337     r533      1
    c5338     Obj       39
    c5338     r533      1
    c5339     Obj       40
    c5339     r533      1
    c5340     Obj       41
    c5340     r533      1
    c5340     r534      1
    c5341     Obj       42
    c5341     r533      1
    c5341     r534      1
    c5342     Obj       43
    c5342     r533      1
    c5342     r534      1
    c5343     Obj       44
    c5343     r533      1
    c5343     r534      1
    c5344     Obj       45
    c5344     r533      1
    c5344     r534      1
    c5345     Obj       46
    c5345     r534      1
    c5346     Obj       47
    c5346     r534      1
    c5347     Obj       48
    c5347     r534      1
    c5348     Obj       49
    c5348     r534      1
    c5349     Obj       50
    c5349     r534      1
    c5350     Obj       51
    c5350     r534      1
    c5350     r535      1
    c5351     Obj       52
    c5351     r534      1
    c5351     r535      1
    c5352     Obj       53
    c5352     r534      1
    c5352     r535      1
    c5353     Obj       54
    c5353     r534      1
    c5353     r535      1
    c5354     Obj       55
    c5354     r534      1
    c5354     r535      1
    c5355     Obj       56
    c5355     r535      1
    c5356     Obj       57
    c5356     r535      1
    c5357     Obj       58
    c5357     r535      1
    c5358     Obj       59
    c5358     r535      1
    c5359     Obj       60
    c5359     r535      1
    c5360     Obj       61
    c5360     r535      1
    c5360     r536      1
    c5361     Obj       62
    c5361     r535      1
    c5361     r536      1
    c5362     Obj       63
    c5362     r535      1
    c5362     r536      1
    c5363     Obj       64
    c5363     r535      1
    c5363     r536      1
    c5364     Obj       65
    c5364     r535      1
    c5364     r536      1
    c5365     Obj       66
    c5365     r536      1
    c5366     Obj       67
    c5366     r536      1
    c5367     Obj       68
    c5367     r536      1
    c5368     Obj       69
    c5368     r536      1
    c5369     Obj       70
    c5369     r536      1
    c5370     Obj       71
    c5370     r536      1
    c5370     r537      1
    c5371     Obj       72
    c5371     r536      1
    c5371     r537      1
    c5372     Obj       73
    c5372     r536      1
    c5372     r537      1
    c5373     Obj       74
    c5373     r536      1
    c5373     r537      1
    c5374     Obj       75
    c5374     r536      1
    c5374     r537      1
    c5375     Obj       76
    c5375     r537      1
    c5376     Obj       77
    c5376     r537      1
    c5377     Obj       78
    c5377     r537      1
    c5378     Obj       79
    c5378     r537      1
    c5379     Obj       80
    c5379     r537      1
    c5380     Obj       81
    c5380     r537      1
    c5380     r538      1
    c5381     Obj       82
    c5381     r537      1
    c5381     r538      1
    c5382     Obj       83
    c5382     r537      1
    c5382     r538      1
    c5383     Obj       84
    c5383     r537      1
    c5383     r538      1
    c5384     Obj       85
    c5384     r537      1
    c5384     r538      1
    c5385     Obj       86
    c5385     r538      1
    c5386     Obj       87
    c5386     r538      1
    c5387     Obj       88
    c5387     r538      1
    c5388     Obj       89
    c5388     r538      1
    c5389     Obj       90
    c5389     r538      1
    c5390     Obj       91
    c5390     r538      1
    c5390     r539      1
    c5391     Obj       92
    c5391     r538      1
    c5391     r539      1
    c5392     Obj       93
    c5392     r538      1
    c5392     r539      1
    c5393     Obj       94
    c5393     r538      1
    c5393     r539      1
    c5394     Obj       95
    c5394     r538      1
    c5394     r539      1
    c5395     Obj       96
    c5395     r539      1
    c5396     Obj       97
    c5396     r539      1
    c5397     Obj       98
    c5397     r539      1
    c5398     Obj       99
    c5398     r539      1
    c5399     Obj       100
    c5399     r539      1
    c5400     Obj       1
    c5400     r539      1
    c5400     r540      1
    c5401     Obj       2
    c5401     r539      1
    c5401     r540      1
    c5402     Obj       3
    c5402     r539      1
    c5402     r540      1
    c5403     Obj       4
    c5403     r539      1
    c5403     r540      1
    c5404     Obj       5
    c5404     r539      1
    c5404     r540      1
    c5405     Obj       6
    c5405     r540      1
    c5406     Obj       7
    c5406     r540      1
    c5407     Obj       8
    c5407     r540      1
    c5408     Obj       9
    c5408     r540      1
    c5409     Obj       10
    c5409     r540      1
    c5410     Obj       11
    c5410     r540      1
    c5410     r541      1
    c5411     Obj       12
    c5411     r540      1
    c5411     r541      1
    c5412     Obj       13
    c5412     r540      1
    c5412     r541      1
    c5413     Obj       14
    c5413     r540      1
    c5413     r541      1
    c5414     Obj       15
    c5414     r540      1
    c5414     r541      1
    c5415     Obj       16
    c5415     r541      1
    c5416     Obj       17
    c5416     r541      1
    c5417     Obj       18
    c5417     r541      1
    c5418     Obj       19
    c5418     r541      1
    c5419     Obj       20
    c5419     r541      1
    c5420     Obj       21
    c5420     r541      1
    c5420     r542      1
    c5421     Obj       22
    c5421     r541      1
    c5421     r542      1
    c5422     Obj       23
    c5422     r541      1
    c5422     r542      1
    c5423     Obj       24
    c5423     r541      1
    c5423     r542      1
    c5424     Obj       25
    c5424     r541      1
    c5424     r542      1
    c5425     Obj       26
    c5425     r542      1
    c5426     Obj       27
    c5426     r542      1
    c5427     Obj       28
    c5427     r542      1
    c5428     Obj       29
    c5428     r542      1
    c5429     Obj       30
    c5429     r542      1
    c5430     Obj       31
    c5430     r542      1
    c5430     r543      1
    c5431     Obj       32
    c5431     r542      1
    c5431     r543      1
    c5432     Obj       33
    c5432     r542      1
    c5432     r543      1
    c5433     Obj       34
    c5433     r542      1
    c5433     r543      1
    c5434     Obj       35
    c5434     r542      1
    c5434     r543      1
    c5435     Obj       36
    c5435     r543      1
    c5436     Obj       37
    c5436     r543      1
    c5437     Obj       38
    c5437     r543      1
    c5438     Obj       39
    c5438     r543      1
    c5439     Obj       40
    c5439     r543      1
    c5440     Obj       41
    c5440     r543      1
    c5440     r544      1
    c5441     Obj       42
    c5441     r543      1
    c5441     r544      1
    c5442     Obj       43
    c5442     r543      1
    c5442     r544      1
    c5443     Obj       44
    c5443     r543      1
    c5443     r544      1
    c5444     Obj       45
    c5444     r543      1
    c5444     r544      1
    c5445     Obj       46
    c5445     r544      1
    c5446     Obj       47
    c5446     r544      1
    c5447     Obj       48
    c5447     r544      1
    c5448     Obj       49
    c5448     r544      1
    c5449     Obj       50
    c5449     r544      1
    c5450     Obj       51
    c5450     r544      1
    c5450     r545      1
    c5451     Obj       52
    c5451     r544      1
    c5451     r545      1
    c5452     Obj       53
    c5452     r544      1
    c5452     r545      1
    c5453     Obj       54
    c5453     r544      1
    c5453     r545      1
    c5454     Obj       55
    c5454     r544      1
    c5454     r545      1
    c5455     Obj       56
    c5455     r545      1
    c5456     Obj       57
    c5456     r545      1
    c5457     Obj       58
    c5457     r545      1
    c5458     Obj       59
    c5458     r545      1
    c5459     Obj       60
    c5459     r545      1
    c5460     Obj       61
    c5460     r545      1
    c5460     r546      1
    c5461     Obj       62
    c5461     r545      1
    c5461     r546      1
    c5462     Obj       63
    c5462     r545      1
    c5462     r546      1
    c5463     Obj       64
    c5463     r545      1
    c5463     r546      1
    c5464     Obj       65
    c5464     r545      1
    c5464     r546      1
    c5465     Obj       66
    c5465     r546      1
    c5466     Obj       67
    c5466     r546      1
    c5467     Obj       68
    c5467     r546      1
    c5468     Obj       69
    c5468     r546      1
    c5469     Obj       70
    c5469     r546      1
    c5470     Obj       71
    c5470     r546      1
    c5470     r547      1
    c5471     Obj       72
    c5471     r546      1
    c5471     r547      1
    c5472     Obj       73
    c5472     r546      1
    c5472     r547      1
    c5473     Obj       74
    c5473     r546      1
    c5473     r547      1
    c5474     Obj       75
    c5474     r546      1
    c5474     r547      1
    c5475     Obj       76
    c5475     r547      1
    c5476     Obj       77
    c5476     r547      1
    c5477     Obj       78
    c5477     r547      1
    c5478     Obj       79
    c5478     r547      1
    c5479     Obj       80
    c5479     r547      1
    c5480     Obj       81
    c5480     r547      1
    c5480     r548      1
    c5481     Obj       82
    c5481     r547      1
    c5481     r548      1
    c5482     Obj       83
    c5482     r547      1
    c5482     r548      1
    c5483     Obj       84
    c5483     r547      1
    c5483     r548      1
    c5484     Obj       85
    c5484     r547      1
    c5484     r548      1
    c5485     Obj       86
    c5485     r548      1
    c5486     Obj       87
    c5486     r548      1
    c5487     Obj       88
    c5487     r548      1
    c5488     Obj       89
    c5488     r548      1
    c5489     Obj       90
    c5489     r548      1
    c5490     Obj       91
    c5490     r548      1
    c5490     r549      1
    c5491     Obj       92
    c5491     r548      1
    c5491     r549      1
    c5492     Obj       93
    c5492     r548      1
    c5492     r549      1
    c5493     Obj       94
    c5493     r548      1
    c5493     r549      1
    c5494     Obj       95
    c5494     r548      1
    c5494     r549      1
    c5495     Obj       96
    c5495     r549      1
    c5496     Obj       97
    c5496     r549      1
    c5497     Obj       98
    c5497     r549      1
    c5498     Obj       99
    c5498     r549      1
    c5499     Obj       100
    c5499     r549      1
    c5500     Obj       1
    c5500     r549      1
    c5500     r550      1
    c5501     Obj       2
    c5501     r549      1
    c5501     r550      1
    c5502     Obj       3
    c5502     r549      1
    c5502     r550      1
    c5503     Obj       4
    c5503     r549      1
    c5503     r550      1
    c5504     Obj       5
    c5504     r549      1
    c5504     r550      1
    c5505     Obj       6
    c5505     r550      1
    c5506     Obj       7
    c5506     r550      1
    c5507     Obj       8
    c5507     r550      1
    c5508     Obj       9
    c5508     r550      1
    c5509     Obj       10
    c5509     r550      1
    c5510     Obj       11
    c5510     r550      1
    c5510     r551      1
    c5511     Obj       12
    c5511     r550      1
    c5511     r551      1
    c5512     Obj       13
    c5512     r550      1
    c5512     r551      1
    c5513     Obj       14
    c5513     r550      1
    c5513     r551      1
    c5514     Obj       15
    c5514     r550      1
    c5514     r551      1
    c5515     Obj       16
    c5515     r551      1
    c5516     Obj       17
    c5516     r551      1
    c5517     Obj       18
    c5517     r551      1
    c5518     Obj       19
    c5518     r551      1
    c5519     Obj       20
    c5519     r551      1
    c5520     Obj       21
    c5520     r551      1
    c5520     r552      1
    c5521     Obj       22
    c5521     r551      1
    c5521     r552      1
    c5522     Obj       23
    c5522     r551      1
    c5522     r552      1
    c5523     Obj       24
    c5523     r551      1
    c5523     r552      1
    c5524     Obj       25
    c5524     r551      1
    c5524     r552      1
    c5525     Obj       26
    c5525     r552      1
    c5526     Obj       27
    c5526     r552      1
    c5527     Obj       28
    c5527     r552      1
    c5528     Obj       29
    c5528     r552      1
    c5529     Obj       30
    c5529     r552      1
    c5530     Obj       31
    c5530     r552      1
    c5530     r553      1
    c5531     Obj       32
    c5531     r552      1
    c5531     r553      1
    c5532     Obj       33
    c5532     r552      1
    c5532     r553      1
    c5533     Obj       34
    c5533     r552      1
    c5533     r553      1
    c5534     Obj       35
    c5534     r552      1
    c5534     r553      1
    c5535     Obj       36
    c5535     r553      1
    c5536     Obj       37
    c5536     r553      1
    c5537     Obj       38
    c5537     r553      1
    c5538     Obj       39
    c5538     r553      1
    c5539     Obj       40
    c5539     r553      1
    c5540     Obj       41
    c5540     r553      1
    c5540     r554      1
    c5541     Obj       42
    c5541     r553      1
    c5541     r554      1
    c5542     Obj       43
    c5542     r553      1
    c5542     r554      1
    c5543     Obj       44
    c5543     r553      1
    c5543     r554      1
    c5544     Obj       45
    c5544     r553      1
    c5544     r554      1
    c5545     Obj       46
    c5545     r554      1
    c5546     Obj       47
    c5546     r554      1
    c5547     Obj       48
    c5547     r554      1
    c5548     Obj       49
    c5548     r554      1
    c5549     Obj       50
    c5549     r554      1
    c5550     Obj       51
    c5550     r554      1
    c5550     r555      1
    c5551     Obj       52
    c5551     r554      1
    c5551     r555      1
    c5552     Obj       53
    c5552     r554      1
    c5552     r555      1
    c5553     Obj       54
    c5553     r554      1
    c5553     r555      1
    c5554     Obj       55
    c5554     r554      1
    c5554     r555      1
    c5555     Obj       56
    c5555     r555      1
    c5556     Obj       57
    c5556     r555      1
    c5557     Obj       58
    c5557     r555      1
    c5558     Obj       59
    c5558     r555      1
    c5559     Obj       60
    c5559     r555      1
    c5560     Obj       61
    c5560     r555      1
    c5560     r556      1
    c5561     Obj       62
    c5561     r555      1
    c5561     r556      1
    c5562     Obj       63
    c5562     r555      1
    c5562     r556      1
    c5563     Obj       64
    c5563     r555      1
    c5563     r556      1
    c5564     Obj       65
    c5564     r555      1
    c5564     r556      1
    c5565     Obj       66
    c5565     r556      1
    c5566     Obj       67
    c5566     r556      1
    c5567     Obj       68
    c5567     r556      1
    c5568     Obj       69
    c5568     r556      1
    c5569     Obj       70
    c5569     r556      1
    c5570     Obj       71
    c5570     r556      1
    c5570     r557      1
    c5571     Obj       72
    c5571     r556      1
    c5571     r557      1
    c5572     Obj       73
    c5572     r556      1
    c5572     r557      1
    c5573     Obj       74
    c5573     r556      1
    c5573     r557      1
    c5574     Obj       75
    c5574     r556      1
    c5574     r557      1
    c5575     Obj       76
    c5575     r557      1
    c5576     Obj       77
    c5576     r557      1
    c5577     Obj       78
    c5577     r557      1
    c5578     Obj       79
    c5578     r557      1
    c5579     Obj       80
    c5579     r557      1
    c5580     Obj       81
    c5580     r557      1
    c5580     r558      1
    c5581     Obj       82
    c5581     r557      1
    c5581     r558      1
    c5582     Obj       83
    c5582     r557      1
    c5582     r558      1
    c5583     Obj       84
    c5583     r557      1
    c5583     r558      1
    c5584     Obj       85
    c5584     r557      1
    c5584     r558      1
    c5585     Obj       86
    c5585     r558      1
    c5586     Obj       87
    c5586     r558      1
    c5587     Obj       88
    c5587     r558      1
    c5588     Obj       89
    c5588     r558      1
    c5589     Obj       90
    c5589     r558      1
    c5590     Obj       91
    c5590     r558      1
    c5590     r559      1
    c5591     Obj       92
    c5591     r558      1
    c5591     r559      1
    c5592     Obj       93
    c5592     r558      1
    c5592     r559      1
    c5593     Obj       94
    c5593     r558      1
    c5593     r559      1
    c5594     Obj       95
    c5594     r558      1
    c5594     r559      1
    c5595     Obj       96
    c5595     r559      1
    c5596     Obj       97
    c5596     r559      1
    c5597     Obj       98
    c5597     r559      1
    c5598     Obj       99
    c5598     r559      1
    c5599     Obj       100
    c5599     r559      1
    c5600     Obj       1
    c5600     r559      1
    c5600     r560      1
    c5601     Obj       2
    c5601     r559      1
    c5601     r560      1
    c5602     Obj       3
    c5602     r559      1
    c5602     r560      1
    c5603     Obj       4
    c5603     r559      1
    c5603     r560      1
    c5604     Obj       5
    c5604     r559      1
    c5604     r560      1
    c5605     Obj       6
    c5605     r560      1
    c5606     Obj       7
    c5606     r560      1
    c5607     Obj       8
    c5607     r560      1
    c5608     Obj       9
    c5608     r560      1
    c5609     Obj       10
    c5609     r560      1
    c5610     Obj       11
    c5610     r560      1
    c5610     r561      1
    c5611     Obj       12
    c5611     r560      1
    c5611     r561      1
    c5612     Obj       13
    c5612     r560      1
    c5612     r561      1
    c5613     Obj       14
    c5613     r560      1
    c5613     r561      1
    c5614     Obj       15
    c5614     r560      1
    c5614     r561      1
    c5615     Obj       16
    c5615     r561      1
    c5616     Obj       17
    c5616     r561      1
    c5617     Obj       18
    c5617     r561      1
    c5618     Obj       19
    c5618     r561      1
    c5619     Obj       20
    c5619     r561      1
    c5620     Obj       21
    c5620     r561      1
    c5620     r562      1
    c5621     Obj       22
    c5621     r561      1
    c5621     r562      1
    c5622     Obj       23
    c5622     r561      1
    c5622     r562      1
    c5623     Obj       24
    c5623     r561      1
    c5623     r562      1
    c5624     Obj       25
    c5624     r561      1
    c5624     r562      1
    c5625     Obj       26
    c5625     r562      1
    c5626     Obj       27
    c5626     r562      1
    c5627     Obj       28
    c5627     r562      1
    c5628     Obj       29
    c5628     r562      1
    c5629     Obj       30
    c5629     r562      1
    c5630     Obj       31
    c5630     r562      1
    c5630     r563      1
    c5631     Obj       32
    c5631     r562      1
    c5631     r563      1
    c5632     Obj       33
    c5632     r562      1
    c5632     r563      1
    c5633     Obj       34
    c5633     r562      1
    c5633     r563      1
    c5634     Obj       35
    c5634     r562      1
    c5634     r563      1
    c5635     Obj       36
    c5635     r563      1
    c5636     Obj       37
    c5636     r563      1
    c5637     Obj       38
    c5637     r563      1
    c5638     Obj       39
    c5638     r563      1
    c5639     Obj       40
    c5639     r563      1
    c5640     Obj       41
    c5640     r563      1
    c5640     r564      1
    c5641     Obj       42
    c5641     r563      1
    c5641     r564      1
    c5642     Obj       43
    c5642     r563      1
    c5642     r564      1
    c5643     Obj       44
    c5643     r563      1
    c5643     r564      1
    c5644     Obj       45
    c5644     r563      1
    c5644     r564      1
    c5645     Obj       46
    c5645     r564      1
    c5646     Obj       47
    c5646     r564      1
    c5647     Obj       48
    c5647     r564      1
    c5648     Obj       49
    c5648     r564      1
    c5649     Obj       50
    c5649     r564      1
    c5650     Obj       51
    c5650     r564      1
    c5650     r565      1
    c5651     Obj       52
    c5651     r564      1
    c5651     r565      1
    c5652     Obj       53
    c5652     r564      1
    c5652     r565      1
    c5653     Obj       54
    c5653     r564      1
    c5653     r565      1
    c5654     Obj       55
    c5654     r564      1
    c5654     r565      1
    c5655     Obj       56
    c5655     r565      1
    c5656     Obj       57
    c5656     r565      1
    c5657     Obj       58
    c5657     r565      1
    c5658     Obj       59
    c5658     r565      1
    c5659     Obj       60
    c5659     r565      1
    c5660     Obj       61
    c5660     r565      1
    c5660     r566      1
    c5661     Obj       62
    c5661     r565      1
    c5661     r566      1
    c5662     Obj       63
    c5662     r565      1
    c5662     r566      1
    c5663     Obj       64
    c5663     r565      1
    c5663     r566      1
    c5664     Obj       65
    c5664     r565      1
    c5664     r566      1
    c5665     Obj       66
    c5665     r566      1
    c5666     Obj       67
    c5666     r566      1
    c5667     Obj       68
    c5667     r566      1
    c5668     Obj       69
    c5668     r566      1
    c5669     Obj       70
    c5669     r566      1
    c5670     Obj       71
    c5670     r566      1
    c5670     r567      1
    c5671     Obj       72
    c5671     r566      1
    c5671     r567      1
    c5672     Obj       73
    c5672     r566      1
    c5672     r567      1
    c5673     Obj       74
    c5673     r566      1
    c5673     r567      1
    c5674     Obj       75
    c5674     r566      1
    c5674     r567      1
    c5675     Obj       76
    c5675     r567      1
    c5676     Obj       77
    c5676     r567      1
    c5677     Obj       78
    c5677     r567      1
    c5678     Obj       79
    c5678     r567      1
    c5679     Obj       80
    c5679     r567      1
    c5680     Obj       81
    c5680     r567      1
    c5680     r568      1
    c5681     Obj       82
    c5681     r567      1
    c5681     r568      1
    c5682     Obj       83
    c5682     r567      1
    c5682     r568      1
    c5683     Obj       84
    c5683     r567      1
    c5683     r568      1
    c5684     Obj       85
    c5684     r567      1
    c5684     r568      1
    c5685     Obj       86
    c5685     r568      1
    c5686     Obj       87
    c5686     r568      1
    c5687     Obj       88
    c5687     r568      1
    c5688     Obj       89
    c5688     r568      1
    c5689     Obj       90
    c5689     r568      1
    c5690     Obj       91
    c5690     r568      1
    c5690     r569      1
    c5691     Obj       92
    c5691     r568      1
    c5691     r569      1
    c5692     Obj       93
    c5692     r568      1
    c5692     r569      1
    c5693     Obj       94
    c5693     r568      1
    c5693     r569      1
    c5694     Obj       95
    c5694     r568      1
    c5694     r569      1
    c5695     Obj       96
    c5695     r569      1
    c5696     Obj       97
    c5696     r569      1
    c5697     Obj       98
    c5697     r569      1
    c5698     Obj       99
    c5698     r569      1
    c5699     Obj       100
    c5699     r569      1
    c5700     Obj       1
    c5700     r569      1
    c5700     r570      1
    c5701     Obj       2
    c5701     r569      1
    c5701     r570      1
    c5702     Obj       3
    c5702     r569      1
    c5702     r570      1
    c5703     Obj       4
    c5703     r569      1
    c5703     r570      1
    c5704     Obj       5
    c5704     r569      1
    c5704     r570      1
    c5705     Obj       6
    c5705     r570      1
    c5706     Obj       7
    c5706     r570      1
    c5707     Obj       8
    c5707     r570      1
    c5708     Obj       9
    c5708     r570      1
    c5709     Obj       10
    c5709     r570      1
    c5710     Obj       11
    c5710     r570      1
    c5710     r571      1
    c5711     Obj       12
    c5711     r570      1
    c5711     r571      1
    c5712     Obj       13
    c5712     r570      1
    c5712     r571      1
    c5713     Obj       14
    c5713     r570      1
    c5713     r571      1
    c5714     Obj       15
    c5714     r570      1
    c5714     r571      1
    c5715     Obj       16
    c5715     r571      1
    c5716     Obj       17
    c5716     r571      1
    c5717     Obj       18
    c5717     r571      1
    c5718     Obj       19
    c5718     r571      1
    c5719     Obj       20
    c5719     r571      1
    c5720     Obj       21
    c5720     r571      1
    c5720     r572      1
    c5721     Obj       22
    c5721     r571      1
    c5721     r572      1
    c5722     Obj       23
    c5722     r571      1
    c5722     r572      1
    c5723     Obj       24
    c5723     r571      1
    c5723     r572      1
    c5724     Obj       25
    c5724     r571      1
    c5724     r572      1
    c5725     Obj       26
    c5725     r572      1
    c5726     Obj       27
    c5726     r572      1
    c5727     Obj       28
    c5727     r572      1
    c5728     Obj       29
    c5728     r572      1
    c5729     Obj       30
    c5729     r572      1
    c5730     Obj       31
    c5730     r572      1
    c5730     r573      1
    c5731     Obj       32
    c5731     r572      1
    c5731     r573      1
    c5732     Obj       33
    c5732     r572      1
    c5732     r573      1
    c5733     Obj       34
    c5733     r572      1
    c5733     r573      1
    c5734     Obj       35
    c5734     r572      1
    c5734     r573      1
    c5735     Obj       36
    c5735     r573      1
    c5736     Obj       37
    c5736     r573      1
    c5737     Obj       38
    c5737     r573      1
    c5738     Obj       39
    c5738     r573      1
    c5739     Obj       40
    c5739     r573      1
    c5740     Obj       41
    c5740     r573      1
    c5740     r574      1
    c5741     Obj       42
    c5741     r573      1
    c5741     r574      1
    c5742     Obj       43
    c5742     r573      1
    c5742     r574      1
    c5743     Obj       44
    c5743     r573      1
    c5743     r574      1
    c5744     Obj       45
    c5744     r573      1
    c5744     r574      1
    c5745     Obj       46
    c5745     r574      1
    c5746     Obj       47
    c5746     r574      1
    c5747     Obj       48
    c5747     r574      1
    c5748     Obj       49
    c5748     r574      1
    c5749     Obj       50
    c5749     r574      1
    c5750     Obj       51
    c5750     r574      1
    c5750     r575      1
    c5751     Obj       52
    c5751     r574      1
    c5751     r575      1
    c5752     Obj       53
    c5752     r574      1
    c5752     r575      1
    c5753     Obj       54
    c5753     r574      1
    c5753     r575      1
    c5754     Obj       55
    c5754     r574      1
    c5754     r575      1
    c5755     Obj       56
    c5755     r575      1
    c5756     Obj       57
    c5756     r575      1
    c5757     Obj       58
    c5757     r575      1
    c5758     Obj       59
    c5758     r575      1
    c5759     Obj       60
    c5759     r575      1
    c5760     Obj       61
    c5760     r575      1
    c5760     r576      1
    c5761     Obj       62
    c5761     r575      1
    c5761     r576      1
    c5762     Obj       63
    c5762     r575      1
    c5762     r576      1
    c5763     Obj       64
    c5763     r575      1
    c5763     r576      1
    c5764     Obj       65
    c5764     r575      1
    c5764     r576      1
    c5765     Obj       66
    c5765     r576      1
    c5766     Obj       67
    c5766     r576      1
    c5767     Obj       68
    c5767     r576      1
    c5768     Obj       69
    c5768     r576      1
    c5769     Obj       70
    c5769     r576      1
    c5770     Obj       71
    c5770     r576      1
    c5770     r577      1
    c5771     Obj       72
    c5771     r576      1
    c5771     r577      1
    c5772     Obj       73
    c5772     r576      1
    c5772     r577      1
    c5773     Obj       74
    c5773     r576      1
    c5773     r577      1
    c5774     Obj       75
    c5774     r576      1
    c5774     r577      1
    c5775     Obj       76
    c5775     r577      1
    c5776     Obj       77
    c5776     r577      1
    c5777     Obj       78
    c5777     r577      1
    c5778     Obj       79
    c5778     r577      1
    c5779     Obj       80
    c5779     r577      1
    c5780     Obj       81
    c5780     r577      1
    c5780     r578      1
    c5781     Obj       82
    c5781     r577      1
    c5781     r578      1
    c5782     Obj       83
    c5782     r577      1
    c5782     r578      1
    c5783     Obj       84
    c5783     r577      1
    c5783     r578      1
    c5784     Obj       85
    c5784     r577      1
    c5784     r578      1
    c5785     Obj       86
    c5785     r578      1
    c5786     Obj       87
    c5786     r578      1
    c5787     Obj       88
    c5787     r578      1
    c5788     Obj       89
    c5788     r578      1
    c5789     Obj       90
    c5789     r578      1
    c5790     Obj       91
    c5790     r578      1
    c5790     r579      1
    c5791     Obj       92
    c5791     r578      1
    c5791     r579      1
    c5792     Obj       93
    c5792     r578      1
    c5792     r579      1
    c5793     Obj       94
    c5793     r578      1
    c5793     r579      1
    c5794     Obj       95
    c5794     r578      1
    c5794     r579      1
    c5795     Obj       96
    c5795     r579      1
    c5796     Obj       97
    c5796     r579      1
    c5797     Obj       98
    c5797     r579      1
    c5798     Obj       99
    c5798     r579      1
    c5799     Obj       100
    c5799     r579      1
    c5800     Obj       1
    c5800     r579      1
    c5800     r580      1
    c5801     Obj       2
    c5801     r579      1
    c5801     r580      1
    c5802     Obj       3
    c5802     r579      1
    c5802     r580      1
    c5803     Obj       4
    c5803     r579      1
    c5803     r580      1
    c5804     Obj       5
    c5804     r579      1
    c5804     r580      1
    c5805     Obj       6
    c5805     r580      1
    c5806     Obj       7
    c5806     r580      1
    c5807     Obj       8
    c5807     r580      1
    c5808     Obj       9
    c5808     r580      1
    c5809     Obj       10
    c5809     r580      1
    c5810     Obj       11
    c5810     r580      1
    c5810     r581      1
    c5811     Obj       12
    c5811     r580      1
    c5811     r581      1
    c5812     Obj       13
    c5812     r580      1
    c5812     r581      1
    c5813     Obj       14
    c5813     r580      1
    c5813     r581      1
    c5814     Obj       15
    c5814     r580      1
    c5814     r581      1
    c5815     Obj       16
    c5815     r581      1
    c5816     Obj       17
    c5816     r581      1
    c5817     Obj       18
    c5817     r581      1
    c5818     Obj       19
    c5818     r581      1
    c5819     Obj       20
    c5819     r581      1
    c5820     Obj       21
    c5820     r581      1
    c5820     r582      1
    c5821     Obj       22
    c5821     r581      1
    c5821     r582      1
    c5822     Obj       23
    c5822     r581      1
    c5822     r582      1
    c5823     Obj       24
    c5823     r581      1
    c5823     r582      1
    c5824     Obj       25
    c5824     r581      1
    c5824     r582      1
    c5825     Obj       26
    c5825     r582      1
    c5826     Obj       27
    c5826     r582      1
    c5827     Obj       28
    c5827     r582      1
    c5828     Obj       29
    c5828     r582      1
    c5829     Obj       30
    c5829     r582      1
    c5830     Obj       31
    c5830     r582      1
    c5830     r583      1
    c5831     Obj       32
    c5831     r582      1
    c5831     r583      1
    c5832     Obj       33
    c5832     r582      1
    c5832     r583      1
    c5833     Obj       34
    c5833     r582      1
    c5833     r583      1
    c5834     Obj       35
    c5834     r582      1
    c5834     r583      1
    c5835     Obj       36
    c5835     r583      1
    c5836     Obj       37
    c5836     r583      1
    c5837     Obj       38
    c5837     r583      1
    c5838     Obj       39
    c5838     r583      1
    c5839     Obj       40
    c5839     r583      1
    c5840     Obj       41
    c5840     r583      1
    c5840     r584      1
    c5841     Obj       42
    c5841     r583      1
    c5841     r584      1
    c5842     Obj       43
    c5842     r583      1
    c5842     r584      1
    c5843     Obj       44
    c5843     r583      1
    c5843     r584      1
    c5844     Obj       45
    c5844     r583      1
    c5844     r584      1
    c5845     Obj       46
    c5845     r584      1
    c5846     Obj       47
    c5846     r584      1
    c5847     Obj       48
    c5847     r584      1
    c5848     Obj       49
    c5848     r584      1
    c5849     Obj       50
    c5849     r584      1
    c5850     Obj       51
    c5850     r584      1
    c5850     r585      1
    c5851     Obj       52
    c5851     r584      1
    c5851     r585      1
    c5852     Obj       53
    c5852     r584      1
    c5852     r585      1
    c5853     Obj       54
    c5853     r584      1
    c5853     r585      1
    c5854     Obj       55
    c5854     r584      1
    c5854     r585      1
    c5855     Obj       56
    c5855     r585      1
    c5856     Obj       57
    c5856     r585      1
    c5857     Obj       58
    c5857     r585      1
    c5858     Obj       59
    c5858     r585      1
    c5859     Obj       60
    c5859     r585      1
    c5860     Obj       61
    c5860     r585      1
    c5860     r586      1
    c5861     Obj       62
    c5861     r585      1
    c5861     r586      1
    c5862     Obj       63
    c5862     r585      1
    c5862     r586      1
    c5863     Obj       64
    c5863     r585      1
    c5863     r586      1
    c5864     Obj       65
    c5864     r585      1
    c5864     r586      1
    c5865     Obj       66
    c5865     r586      1
    c5866     Obj       67
    c5866     r586      1
    c5867     Obj       68
    c5867     r586      1
    c5868     Obj       69
    c5868     r586      1
    c5869     Obj       70
    c5869     r586      1
    c5870     Obj       71
    c5870     r586      1
    c5870     r587      1
    c5871     Obj       72
    c5871     r586      1
    c5871     r587      1
    c5872     Obj       73
    c5872     r586      1
    c5872     r587      1
    c5873     Obj       74
    c5873     r586      1
    c5873     r587      1
    c5874     Obj       75
    c5874     r586      1
    c5874     r587      1
    c5875     Obj       76
    c5875     r587      1
    c5876     Obj       77
    c5876     r587      1
    c5877     Obj       78
    c5877     r587      1
    c5878     Obj       79
    c5878     r587      1
    c5879     Obj       80
    c5879     r587      1
    c5880     Obj       81
    c5880     r587      1
    c5880     r588      1
    c5881     Obj       82
    c5881     r587      1
    c5881     r588      1
    c5882     Obj       83
    c5882     r587      1
    c5882     r588      1
    c5883     Obj       84
    c5883     r587      1
    c5883     r588      1
    c5884     Obj       85
    c5884     r587      1
    c5884     r588      1
    c5885     Obj       86
    c5885     r588      1
    c5886     Obj       87
    c5886     r588      1
    c5887     Obj       88
    c5887     r588      1
    c5888     Obj       89
    c5888     r588      1
    c5889     Obj       90
    c5889     r588      1
    c5890     Obj       91
    c5890     r588      1
    c5890     r589      1
    c5891     Obj       92
    c5891     r588      1
    c5891     r589      1
    c5892     Obj       93
    c5892     r588      1
    c5892     r589      1
    c5893     Obj       94
    c5893     r588      1
    c5893     r589      1
    c5894     Obj       95
    c5894     r588      1
    c5894     r589      1
    c5895     Obj       96
    c5895     r589      1
    c5896     Obj       97
    c5896     r589      1
    c5897     Obj       98
    c5897     r589      1
    c5898     Obj       99
    c5898     r589      1
    c5899     Obj       100
    c5899     r589      1
    c5900     Obj       1
    c5900     r589      1
    c5900     r590      1
    c5901     Obj       2
    c5901     r589      1
    c5901     r590      1
    c5902     Obj       3
    c5902     r589      1
    c5902     r590      1
    c5903     Obj       4
    c5903     r589      1
    c5903     r590      1
    c5904     Obj       5
    c5904     r589      1
    c5904     r590      1
    c5905     Obj       6
    c5905     r590      1
    c5906     Obj       7
    c5906     r590      1
    c5907     Obj       8
    c5907     r590      1
    c5908     Obj       9
    c5908     r590      1
    c5909     Obj       10
    c5909     r590      1
    c5910     Obj       11
    c5910     r590      1
    c5910     r591      1
    c5911     Obj       12
    c5911     r590      1
    c5911     r591      1
    c5912     Obj       13
    c5912     r590      1
    c5912     r591      1
    c5913     Obj       14
    c5913     r590      1
    c5913     r591      1
    c5914     Obj       15
    c5914     r590      1
    c5914     r591      1
    c5915     Obj       16
    c5915     r591      1
    c5916     Obj       17
    c5916     r591      1
    c5917     Obj       18
    c5917     r591      1
    c5918     Obj       19
    c5918     r591      1
    c5919     Obj       20
    c5919     r591      1
    c5920     Obj       21
    c5920     r591      1
    c5920     r592      1
    c5921     Obj       22
    c5921     r591      1
    c5921     r592      1
    c5922     Obj       23
    c5922     r591      1
    c5922     r592      1
    c5923     Obj       24
    c5923     r591      1
    c5923     r592      1
    c5924     Obj       25
    c5924     r591      1
    c5924     r592      1
    c5925     Obj       26
    c5925     r592      1
    c5926     Obj       27
    c5926     r592      1
    c5927     Obj       28
    c5927     r592      1
    c5928     Obj       29
    c5928     r592      1
    c5929     Obj       30
    c5929     r592      1
    c5930     Obj       31
    c5930     r592      1
    c5930     r593      1
    c5931     Obj       32
    c5931     r592      1
    c5931     r593      1
    c5932     Obj       33
    c5932     r592      1
    c5932     r593      1
    c5933     Obj       34
    c5933     r592      1
    c5933     r593      1
    c5934     Obj       35
    c5934     r592      1
    c5934     r593      1
    c5935     Obj       36
    c5935     r593      1
    c5936     Obj       37
    c5936     r593      1
    c5937     Obj       38
    c5937     r593      1
    c5938     Obj       39
    c5938     r593      1
    c5939     Obj       40
    c5939     r593      1
    c5940     Obj       41
    c5940     r593      1
    c5940     r594      1
    c5941     Obj       42
    c5941     r593      1
    c5941     r594      1
    c5942     Obj       43
    c5942     r593      1
    c5942     r594      1
    c5943     Obj       44
    c5943     r593      1
    c5943     r594      1
    c5944     Obj       45
    c5944     r593      1
    c5944     r594      1
    c5945     Obj       46
    c5945     r594      1
    c5946     Obj       47
    c5946     r594      1
    c5947     Obj       48
    c5947     r594      1
    c5948     Obj       49
    c5948     r594      1
    c5949     Obj       50
    c5949     r594      1
    c5950     Obj       51
    c5950     r594      1
    c5950     r595      1
    c5951     Obj       52
    c5951     r594      1
    c5951     r595      1
    c5952     Obj       53
    c5952     r594      1
    c5952     r595      1
    c5953     Obj       54
    c5953     r594      1
    c5953     r595      1
    c5954     Obj       55
    c5954     r594      1
    c5954     r595      1
    c5955     Obj       56
    c5955     r595      1
    c5956     Obj       57
    c5956     r595      1
    c5957     Obj       58
    c5957     r595      1
    c5958     Obj       59
    c5958     r595      1
    c5959     Obj       60
    c5959     r595      1
    c5960     Obj       61
    c5960     r595      1
    c5960     r596      1
    c5961     Obj       62
    c5961     r595      1
    c5961     r596      1
    c5962     Obj       63
    c5962     r595      1
    c5962     r596      1
    c5963     Obj       64
    c5963     r595      1
    c5963     r596      1
    c5964     Obj       65
    c5964     r595      1
    c5964     r596      1
    c5965     Obj       66
    c5965     r596      1
    c5966     Obj       67
    c5966     r596      1
    c5967     Obj       68
    c5967     r596      1
    c5968     Obj       69
    c5968     r596      1
    c5969     Obj       70
    c5969     r596      1
    c5970     Obj       71
    c5970     r596      1
    c5970     r597      1
    c5971     Obj       72
    c5971     r596      1
    c5971     r597      1
    c5972     Obj       73
    c5972     r596      1
    c5972     r597      1
    c5973     Obj       74
    c5973     r596      1
    c5973     r597      1
    c5974     Obj       75
    c5974     r596      1
    c5974     r597      1
    c5975     Obj       76
    c5975     r597      1
    c5976     Obj       77
    c5976     r597      1
    c5977     Obj       78
    c5977     r597      1
    c5978     Obj       79
    c5978     r597      1
    c5979     Obj       80
    c5979     r597      1
    c5980     Obj       81
    c5980     r597      1
    c5980     r598      1
    c5981     Obj       82
    c5981     r597      1
    c5981     r598      1
    c5982     Obj       83
    c5982     r597      1
    c5982     r598      1
    c5983     Obj       84
    c5983     r597      1
    c5983     r598      1
    c5984     Obj       85
    c5984     r597      1
    c5984     r598      1
    c5985     Obj       86
    c5985     r598      1
    c5986     Obj       87
    c5986     r598      1
    c5987     Obj       88
    c5987     r598      1
    c5988     Obj       89
    c5988     r598      1
    c5989     Obj       90
    c5989     r598      1
    c5990     Obj       91
    c5990     r598      1
    c5990     r599      1
    c5991     Obj       92
    c5991     r598      1
    c5991     r599      1
    c5992     Obj       93
    c5992     r598      1
    c5992     r599      1
    c5993     Obj       94
    c5993     r598      1
    c5993     r599      1
    c5994     Obj       95
    c5994     r598      1
    c5994     r599      1
    c5995     Obj       96
    c5995     r599      1
    c5996     Obj       97
    c5996     r599      1
    c5997     Obj       98
    c5997     r599      1
    c5998     Obj       99
    c5998     r599      1
    c5999     Obj       100
    c5999     r599      1
    c6000     Obj       1
    c6000     r599      1
    c6000     r600      1
    c6001     Obj       2
    c6001     r599      1
    c6001     r600      1
    c6002     Obj       3
    c6002     r599      1
    c6002     r600      1
    c6003     Obj       4
    c6003     r599      1
    c6003     r600      1
    c6004     Obj       5
    c6004     r599      1
    c6004     r600      1
    c6005     Obj       6
    c6005     r600      1
    c6006     Obj       7
    c6006     r600      1
    c6007     Obj       8
    c6007     r600      1
    c6008     Obj       9
    c6008     r600      1
    c6009     Obj       10
    c6009     r600      1
    c6010     Obj       11
    c6010     r600      1
    c6010     r601      1
    c6011     Obj       12
    c6011     r600      1
    c6011     r601      1
    c6012     Obj       13
    c6012     r600      1
    c6012     r601      1
    c6013     Obj       14
    c6013     r600      1
    c6013     r601      1
    c6014     Obj       15
    c6014     r600      1
    c6014     r601      1
    c6015     Obj       16
    c6015     r601      1
    c6016     Obj       17
    c6016     r601      1
    c6017     Obj       18
    c6017     r601      1
    c6018     Obj       19
    c6018     r601      1
    c6019     Obj       20
    c6019     r601      1
    c6020     Obj       21
    c6020     r601      1
    c6020     r602      1
    c6021     Obj       22
    c6021     r601      1
    c6021     r602      1
    c6022     Obj       23
    c6022     r601      1
    c6022     r602      1
    c6023     Obj       24
    c6023     r601      1
    c6023     r602      1
    c6024     Obj       25
    c6024     r601      1
    c6024     r602      1
    c6025     Obj       26
    c6025     r602      1
    c6026     Obj       27
    c6026     r602      1
    c6027     Obj       28
    c6027     r602      1
    c6028     Obj       29
    c6028     r602      1
    c6029     Obj       30
    c6029     r602      1
    c6030     Obj       31
    c6030     r602      1
    c6030     r603      1
    c6031     Obj       32
    c6031     r602      1
    c6031     r603      1
    c6032     Obj       33
    c6032     r602      1
    c6032     r603      1
    c6033     Obj       34
    c6033     r602      1
    c6033     r603      1
    c6034     Obj       35
    c6034     r602      1
    c6034     r603      1
    c6035     Obj       36
    c6035     r603      1
    c6036     Obj       37
    c6036     r603      1
    c6037     Obj       38
    c6037     r603      1
    c6038     Obj       39
    c6038     r603      1
    c6039     Obj       40
    c6039     r603      1
    c6040     Obj       41
    c6040     r603      1
    c6040     r604      1
    c6041     Obj       42
    c6041     r603      1
    c6041     r604      1
    c6042     Obj       43
    c6042     r603      1
    c6042     r604      1
    c6043     Obj       44
    c6043     r603      1
    c6043     r604      1
    c6044     Obj       45
    c6044     r603      1
    c6044     r604      1
    c6045     Obj       46
    c6045     r604      1
    c6046     Obj       47
    c6046     r604      1
    c6047     Obj       48
    c6047     r604      1
    c6048     Obj       49
    c6048     r604      1
    c6049     Obj       50
    c6049     r604      1
    c6050     Obj       51
    c6050     r604      1
    c6050     r605      1
    c6051     Obj       52
    c6051     r604      1
    c6051     r605      1
    c6052     Obj       53
    c6052     r604      1
    c6052     r605      1
    c6053     Obj       54
    c6053     r604      1
    c6053     r605      1
    c6054     Obj       55
    c6054     r604      1
    c6054     r605      1
    c6055     Obj       56
    c6055     r605      1
    c6056     Obj       57
    c6056     r605      1
    c6057     Obj       58
    c6057     r605      1
    c6058     Obj       59
    c6058     r605      1
    c6059     Obj       60
    c6059     r605      1
    c6060     Obj       61
    c6060     r605      1
    c6060     r606      1
    c6061     Obj       62
    c6061     r605      1
    c6061     r606      1
    c6062     Obj       63
    c6062     r605      1
    c6062     r606      1
    c6063     Obj       64
    c6063     r605      1
    c6063     r606      1
    c6064     Obj       65
    c6064     r605      1
    c6064     r606      1
    c6065     Obj       66
    c6065     r606      1
    c6066     Obj       67
    c6066     r606      1
    c6067     Obj       68
    c6067     r606      1
    c6068     Obj       69
    c6068     r606      1
    c6069     Obj       70
    c6069     r606      1
    c6070     Obj       71
    c6070     r606      1
    c6070     r607      1
    c6071     Obj       72
    c6071     r606      1
    c6071     r607      1
    c6072     Obj       73
    c6072     r606      1
    c6072     r607      1
    c6073     Obj       74
    c6073     r606      1
    c6073     r607      1
    c6074     Obj       75
    c6074     r606      1
    c6074     r607      1
    c6075     Obj       76
    c6075     r607      1
    c6076     Obj       77
    c6076     r607      1
    c6077     Obj       78
    c6077     r607      1
    c6078     Obj       79
    c6078     r607      1
    c6079     Obj       80
    c6079     r607      1
    c6080     Obj       81
    c6080     r607      1
    c6080     r608      1
    c6081     Obj       82
    c6081     r607      1
    c6081     r608      1
    c6082     Obj       83
    c6082     r607      1
    c6082     r608      1
    c6083     Obj       84
    c6083     r607      1
    c6083     r608      1
    c6084     Obj       85
    c6084     r607      1
    c6084     r608      1
    c6085     Obj       86
    c6085     r608      1
    c6086     Obj       87
    c6086     r608      1
    c6087     Obj       88
    c6087     r608      1
    c6088     Obj       89
    c6088     r608      1
    c6089     Obj       90
    c6089     r608      1
    c6090     Obj       91
    c6090     r608      1
    c6090     r609      1
    c6091     Obj       92
    c6091     r608      1
    c6091     r609      1
    c6092     Obj       93
    c6092     r608      1
    c6092     r609      1
    c6093     Obj       94
    c6093     r608      1
    c6093     r609      1
    c6094     Obj       95
    c6094     r608      1
    c6094     r609      1
    c6095     Obj       96
    c6095     r609      1
    c6096     Obj       97
    c6096     r609      1
    c6097     Obj       98
    c6097     r609      1
    c6098     Obj       99
    c6098     r609      1
    c6099     Obj       100
    c6099     r609      1
    c6100     Obj       1
    c6100     r609      1
    c6100     r610      1
    c6101     Obj       2
    c6101     r609      1
    c6101     r610      1
    c6102     Obj       3
    c6102     r609      1
    c6102     r610      1
    c6103     Obj       4
    c6103     r609      1
    c6103     r610      1
    c6104     Obj       5
    c6104     r609      1
    c6104     r610      1
    c6105     Obj       6
    c6105     r610      1
    c6106     Obj       7
    c6106     r610      1
    c6107     Obj       8
    c6107     r610      1
    c6108     Obj       9
    c6108     r610      1
    c6109     Obj       10
    c6109     r610      1
    c6110     Obj       11
    c6110     r610      1
    c6110     r611      1
    c6111     Obj       12
    c6111     r610      1
    c6111     r611      1
    c6112     Obj       13
    c6112     r610      1
    c6112     r611      1
    c6113     Obj       14
    c6113     r610      1
    c6113     r611      1
    c6114     Obj       15
    c6114     r610      1
    c6114     r611      1
    c6115     Obj       16
    c6115     r611      1
    c6116     Obj       17
    c6116     r611      1
    c6117     Obj       18
    c6117     r611      1
    c6118     Obj       19
    c6118     r611      1
    c6119     Obj       20
    c6119     r611      1
    c6120     Obj       21
    c6120     r611      1
    c6120     r612      1
    c6121     Obj       22
    c6121     r611      1
    c6121     r612      1
    c6122     Obj       23
    c6122     r611      1
    c6122     r612      1
    c6123     Obj       24
    c6123     r611      1
    c6123     r612      1
    c6124     Obj       25
    c6124     r611      1
    c6124     r612      1
    c6125     Obj       26
    c6125     r612      1
    c6126     Obj       27
    c6126     r612      1
    c6127     Obj       28
    c6127     r612      1
    c6128     Obj       29
    c6128     r612      1
    c6129     Obj       30
    c6129     r612      1
    c6130     Obj       31
    c6130     r612      1
    c6130     r613      1
    c6131     Obj       32
    c6131     r612      1
    c6131     r613      1
    c6132     Obj       33
    c6132     r612      1
    c6132     r613      1
    c6133     Obj       34
    c6133     r612      1
    c6133     r613      1
    c6134     Obj       35
    c6134     r612      1
    c6134     r613      1
    c6135     Obj       36
    c6135     r613      1
    c6136     Obj       37
    c6136     r613      1
    c6137     Obj       38
    c6137     r613      1
    c6138     Obj       39
    c6138     r613      1
    c6139     Obj       40
    c6139     r613      1
    c6140     Obj       41
    c6140     r613      1
    c6140     r614      1
    c6141     Obj       42
    c6141     r613      1
    c6141     r614      1
    c6142     Obj       43
    c6142     r613      1
    c6142     r614      1
    c6143     Obj       44
    c6143     r613      1
    c6143     r614      1
    c6144     Obj       45
    c6144     r613      1
    c6144     r614      1
    c6145     Obj       46
    c6145     r614      1
    c6146     Obj       47
    c6146     r614      1
    c6147     Obj       48
    c6147     r614      1
    c6148     Obj       49
    c6148     r614      1
    c6149     Obj       50
    c6149     r614      1
    c6150     Obj       51
    c6150     r614      1
    c6150     r615      1
    c6151     Obj       52
    c6151     r614      1
    c6151     r615      1
    c6152     Obj       53
    c6152     r614      1
    c6152     r615      1
    c6153     Obj       54
    c6153     r614      1
    c6153     r615      1
    c6154     Obj       55
    c6154     r614      1
    c6154     r615      1
    c6155     Obj       56
    c6155     r615      1
    c6156     Obj       57
    c6156     r615      1
    c6157     Obj       58
    c6157     r615      1
    c6158     Obj       59
    c6158     r615      1
    c6159     Obj       60
    c6159     r615      1
    c6160     Obj       61
    c6160     r615      1
    c6160     r616      1
    c6161     Obj       62
    c6161     r615      1
    c6161     r616      1
    c6162     Obj       63
    c6162     r615      1
    c6162     r616      1
    c6163     Obj       64
    c6163     r615      1
    c6163     r616      1
    c6164     Obj       65
    c6164     r615      1
    c6164     r616      1
    c6165     Obj       66
    c6165     r616      1
    c6166     Obj       67
    c6166     r616      1
    c6167     Obj       68
    c6167     r616      1
    c6168     Obj       69
    c6168     r616      1
    c6169     Obj       70
    c6169     r616      1
    c6170     Obj       71
    c6170     r616      1
    c6170     r617      1
    c6171     Obj       72
    c6171     r616      1
    c6171     r617      1
    c6172     Obj       73
    c6172     r616      1
    c6172     r617      1
    c6173     Obj       74
    c6173     r616      1
    c6173     r617      1
    c6174     Obj       75
    c6174     r616      1
    c6174     r617      1
    c6175     Obj       76
    c6175     r617      1
    c6176     Obj       77
    c6176     r617      1
    c6177     Obj       78
    c6177     r617      1
    c6178     Obj       79
    c6178     r617      1
    c6179     Obj       80
    c6179     r617      1
    c6180     Obj       81
    c6180     r617      1
    c6180     r618      1
    c6181     Obj       82
    c6181     r617      1
    c6181     r618      1
    c6182     Obj       83
    c6182     r617      1
    c6182     r618      1
    c6183     Obj       84
    c6183     r617      1
    c6183     r618      1
    c6184     Obj       85
    c6184     r617      1
    c6184     r618      1
    c6185     Obj       86
    c6185     r618      1
    c6186     Obj       87
    c6186     r618      1
    c6187     Obj       88
    c6187     r618      1
    c6188     Obj       89
    c6188     r618      1
    c6189     Obj       90
    c6189     r618      1
    c6190     Obj       91
    c6190     r618      1
    c6190     r619      1
    c6191     Obj       92
    c6191     r618      1
    c6191     r619      1
    c6192     Obj       93
    c6192     r618      1
    c6192     r619      1
    c6193     Obj       94
    c6193     r618      1
    c6193     r619      1
    c6194     Obj       95
    c6194     r618      1
    c6194     r619      1
    c6195     Obj       96
    c6195     r619      1
    c6196     Obj       97
    c6196     r619      1
    c6197     Obj       98
    c6197     r619      1
    c6198     Obj       99
    c6198     r619      1
    c6199     Obj       100
    c6199     r619      1
    c6200     Obj       1
    c6200     r619      1
    c6200     r620      1
    c6201     Obj       2
    c6201     r619      1
    c6201     r620      1
    c6202     Obj       3
    c6202     r619      1
    c6202     r620      1
    c6203     Obj       4
    c6203     r619      1
    c6203     r620      1
    c6204     Obj       5
    c6204     r619      1
    c6204     r620      1
    c6205     Obj       6
    c6205     r620      1
    c6206     Obj       7
    c6206     r620      1
    c6207     Obj       8
    c6207     r620      1
    c6208     Obj       9
    c6208     r620      1
    c6209     Obj       10
    c6209     r620      1
    c6210     Obj       11
    c6210     r620      1
    c6210     r621      1
    c6211     Obj       12
    c6211     r620      1
    c6211     r621      1
    c6212     Obj       13
    c6212     r620      1
    c6212     r621      1
    c6213     Obj       14
    c6213     r620      1
    c6213     r621      1
    c6214     Obj       15
    c6214     r620      1
    c6214     r621      1
    c6215     Obj       16
    c6215     r621      1
    c6216     Obj       17
    c6216     r621      1
    c6217     Obj       18
    c6217     r621      1
    c6218     Obj       19
    c6218     r621      1
    c6219     Obj       20
    c6219     r621      1
    c6220     Obj       21
    c6220     r621      1
    c6220     r622      1
    c6221     Obj       22
    c6221     r621      1
    c6221     r622      1
    c6222     Obj       23
    c6222     r621      1
    c6222     r622      1
    c6223     Obj       24
    c6223     r621      1
    c6223     r622      1
    c6224     Obj       25
    c6224     r621      1
    c6224     r622      1
    c6225     Obj       26
    c6225     r622      1
    c6226     Obj       27
    c6226     r622      1
    c6227     Obj       28
    c6227     r622      1
    c6228     Obj       29
    c6228     r622      1
    c6229     Obj       30
    c6229     r622      1
    c6230     Obj       31
    c6230     r622      1
    c6230     r623      1
    c6231     Obj       32
    c6231     r622      1
    c6231     r623      1
    c6232     Obj       33
    c6232     r622      1
    c6232     r623      1
    c6233     Obj       34
    c6233     r622      1
    c6233     r623      1
    c6234     Obj       35
    c6234     r622      1
    c6234     r623      1
    c6235     Obj       36
    c6235     r623      1
    c6236     Obj       37
    c6236     r623      1
    c6237     Obj       38
    c6237     r623      1
    c6238     Obj       39
    c6238     r623      1
    c6239     Obj       40
    c6239     r623      1
    c6240     Obj       41
    c6240     r623      1
    c6240     r624      1
    c6241     Obj       42
    c6241     r623      1
    c6241     r624      1
    c6242     Obj       43
    c6242     r623      1
    c6242     r624      1
    c6243     Obj       44
    c6243     r623      1
    c6243     r624      1
    c6244     Obj       45
    c6244     r623      1
    c6244     r624      1
    c6245     Obj       46
    c6245     r624      1
    c6246     Obj       47
    c6246     r624      1
    c6247     Obj       48
    c6247     r624      1
    c6248     Obj       49
    c6248     r624      1
    c6249     Obj       50
    c6249     r624      1
    c6250     Obj       51
    c6250     r624      1
    c6250     r625      1
    c6251     Obj       52
    c6251     r624      1
    c6251     r625      1
    c6252     Obj       53
    c6252     r624      1
    c6252     r625      1
    c6253     Obj       54
    c6253     r624      1
    c6253     r625      1
    c6254     Obj       55
    c6254     r624      1
    c6254     r625      1
    c6255     Obj       56
    c6255     r625      1
    c6256     Obj       57
    c6256     r625      1
    c6257     Obj       58
    c6257     r625      1
    c6258     Obj       59
    c6258     r625      1
    c6259     Obj       60
    c6259     r625      1
    c6260     Obj       61
    c6260     r625      1
    c6260     r626      1
    c6261     Obj       62
    c6261     r625      1
    c6261     r626      1
    c6262     Obj       63
    c6262     r625      1
    c6262     r626      1
    c6263     Obj       64
    c6263     r625      1
    c6263     r626      1
    c6264     Obj       65
    c6264     r625      1
    c6264     r626      1
    c6265     Obj       66
    c6265     r626      1
    c6266     Obj       67
    c6266     r626      1
    c6267     Obj       68
    c6267     r626      1
    c6268     Obj       69
    c6268     r626      1
    c6269     Obj       70
    c6269     r626      1
    c6270     Obj       71
    c6270     r626      1
    c6270     r627      1
    c6271     Obj       72
    c6271     r626      1
    c6271     r627      1
    c6272     Obj       73
    c6272     r626      1
    c6272     r627      1
    c6273     Obj       74
    c6273     r626      1
    c6273     r627      1
    c6274     Obj       75
    c6274     r626      1
    c6274     r627      1
    c6275     Obj       76
    c6275     r627      1
    c6276     Obj       77
    c6276     r627      1
    c6277     Obj       78
    c6277     r627      1
    c6278     Obj       79
    c6278     r627      1
    c6279     Obj       80
    c6279     r627      1
    c6280     Obj       81
    c6280     r627      1
    c6280     r628      1
    c6281     Obj       82
    c6281     r627      1
    c6281     r628      1
    c6282     Obj       83
    c6282     r627      1
    c6282     r628      1
    c6283     Obj       84
    c6283     r627      1
    c6283     r628      1
    c6284     Obj       85
    c6284     r627      1
    c6284     r628      1
    c6285     Obj       86
    c6285     r628      1
    c6286     Obj       87
    c6286     r628      1
    c6287     Obj       88
    c6287     r628      1
    c6288     Obj       89
    c6288     r628      1
    c6289     Obj       90
    c6289     r628      1
    c6290     Obj       91
    c6290     r628      1
    c6290     r629      1
    c6291     Obj       92
    c6291     r628      1
    c6291     r629      1
    c6292     Obj       93
    c6292     r628      1
    c6292     r629      1
    c6293     Obj       94
    c6293     r628      1
    c6293     r629      1
    c6294     Obj       95
    c6294     r628      1
    c6294     r629      1
    c6295     Obj       96
    c6295     r629      1
    c6296     Obj       97
    c6296     r629      1
    c6297     Obj       98
    c6297     r629      1
    c6298     Obj       99
    c6298     r629      1
    c6299     Obj       100
    c6299     r629      1
    c6300     Obj       1
    c6300     r629      1
    c6300     r630      1
    c6301     Obj       2
    c6301     r629      1
    c6301     r630      1
    c6302     Obj       3
    c6302     r629      1
    c6302     r630      1
    c6303     Obj       4
    c6303     r629      1
    c6303     r630      1
    c6304     Obj       5
    c6304     r629      1
    c6304     r630      1
    c6305     Obj       6
    c6305     r630      1
    c6306     Obj       7
    c6306     r630      1
    c6307     Obj       8
    c6307     r630      1
    c6308     Obj       9
    c6308     r630      1
    c6309     Obj       10
    c6309     r630      1
    c6310     Obj       11
    c6310     r630      1
    c6310     r631      1
    c6311     Obj       12
    c6311     r630      1
    c6311     r631      1
    c6312     Obj       13
    c6312     r630      1
    c6312     r631      1
    c6313     Obj       14
    c6313     r630      1
    c6313     r631      1
    c6314     Obj       15
    c6314     r630      1
    c6314     r631      1
    c6315     Obj       16
    c6315     r631      1
    c6316     Obj       17
    c6316     r631      1
    c6317     Obj       18
    c6317     r631      1
    c6318     Obj       19
    c6318     r631      1
    c6319     Obj       20
    c6319     r631      1
    c6320     Obj       21
    c6320     r631      1
    c6320     r632      1
    c6321     Obj       22
    c6321     r631      1
    c6321     r632      1
    c6322     Obj       23
    c6322     r631      1
    c6322     r632      1
    c6323     Obj       24
    c6323     r631      1
    c6323     r632      1
    c6324     Obj       25
    c6324     r631      1
    c6324     r632      1
    c6325     Obj       26
    c6325     r632      1
    c6326     Obj       27
    c6326     r632      1
    c6327     Obj       28
    c6327     r632      1
    c6328     Obj       29
    c6328     r632      1
    c6329     Obj       30
    c6329     r632      1
    c6330     Obj       31
    c6330     r632      1
    c6330     r633      1
    c6331     Obj       32
    c6331     r632      1
    c6331     r633      1
    c6332     Obj       33
    c6332     r632      1
    c6332     r633      1
    c6333     Obj       34
    c6333     r632      1
    c6333     r633      1
    c6334     Obj       35
    c6334     r632      1
    c6334     r633      1
    c6335     Obj       36
    c6335     r633      1
    c6336     Obj       37
    c6336     r633      1
    c6337     Obj       38
    c6337     r633      1
    c6338     Obj       39
    c6338     r633      1
    c6339     Obj       40
    c6339     r633      1
    c6340     Obj       41
    c6340     r633      1
    c6340     r634      1
    c6341     Obj       42
    c6341     r633      1
    c6341     r634      1
    c6342     Obj       43
    c6342     r633      1
    c6342     r634      1
    c6343     Obj       44
    c6343     r633      1
    c6343     r634      1
    c6344     Obj       45
    c6344     r633      1
    c6344     r634      1
    c6345     Obj       46
    c6345     r634      1
    c6346     Obj       47
    c6346     r634      1
    c6347     Obj       48
    c6347     r634      1
    c6348     Obj       49
    c6348     r634      1
    c6349     Obj       50
    c6349     r634      1
    c6350     Obj       51
    c6350     r634      1
    c6350     r635      1
    c6351     Obj       52
    c6351     r634      1
    c6351     r635      1
    c6352     Obj       53
    c6352     r634      1
    c6352     r635      1
    c6353     Obj       54
    c6353     r634      1
    c6353     r635      1
    c6354     Obj       55
    c6354     r634      1
    c6354     r635      1
    c6355     Obj       56
    c6355     r635      1
    c6356     Obj       57
    c6356     r635      1
    c6357     Obj       58
    c6357     r635      1
    c6358     Obj       59
    c6358     r635      1
    c6359     Obj       60
    c6359     r635      1
    c6360     Obj       61
    c6360     r635      1
    c6360     r636      1
    c6361     Obj       62
    c6361     r635      1
    c6361     r636      1
    c6362     Obj       63
    c6362     r635      1
    c6362     r636      1
    c6363     Obj       64
    c6363     r635      1
    c6363     r636      1
    c6364     Obj       65
    c6364     r635      1
    c6364     r636      1
    c6365     Obj       66
    c6365     r636      1
    c6366     Obj       67
    c6366     r636      1
    c6367     Obj       68
    c6367     r636      1
    c6368     Obj       69
    c6368     r636      1
    c6369     Obj       70
    c6369     r636      1
    c6370     Obj       71
    c6370     r636      1
    c6370     r637      1
    c6371     Obj       72
    c6371     r636      1
    c6371     r637      1
    c6372     Obj       73
    c6372     r636      1
    c6372     r637      1
    c6373     Obj       74
    c6373     r636      1
    c6373     r637      1
    c6374     Obj       75
    c6374     r636      1
    c6374     r637      1
    c6375     Obj       76
    c6375     r637      1
    c6376     Obj       77
    c6376     r637      1
    c6377     Obj       78
    c6377     r637      1
    c6378     Obj       79
    c6378     r637      1
    c6379     Obj       80
    c6379     r637      1
    c6380     Obj       81
    c6380     r637      1
    c6380     r638      1
    c6381     Obj       82
    c6381     r637      1
    c6381     r638      1
    c6382     Obj       83
    c6382     r637      1
    c6382     r638      1
    c6383     Obj       84
    c6383     r637      1
    c6383     r638      1
    c6384     Obj       85
    c6384     r637      1
    c6384     r638      1
    c6385     Obj       86
    c6385     r638      1
    c6386     Obj       87
    c6386     r638      1
    c6387     Obj       88
    c6387     r638      1
    c6388     Obj       89
    c6388     r638      1
    c6389     Obj       90
    c6389     r638      1
    c6390     Obj       91
    c6390     r638      1
    c6390     r639      1
    c6391     Obj       92
    c6391     r638      1
    c6391     r639      1
    c6392     Obj       93
    c6392     r638      1
    c6392     r639      1
    c6393     Obj       94
    c6393     r638      1
    c6393     r639      1
    c6394     Obj       95
    c6394     r638      1
    c6394     r639      1
    c6395     Obj       96
    c6395     r639      1
    c6396     Obj       97
    c6396     r639      1
    c6397     Obj       98
    c6397     r639      1
    c6398     Obj       99
    c6398     r639      1
    c6399     Obj       100
    c6399     r639      1
    c6400     Obj       1
    c6400     r639      1
    c6400     r640      1
    c6401     Obj       2
    c6401     r639      1
    c6401     r640      1
    c6402     Obj       3
    c6402     r639      1
    c6402     r640      1
    c6403     Obj       4
    c6403     r639      1
    c6403     r640      1
    c6404     Obj       5
    c6404     r639      1
    c6404     r640      1
    c6405     Obj       6
    c6405     r640      1
    c6406     Obj       7
    c6406     r640      1
    c6407     Obj       8
    c6407     r640      1
    c6408     Obj       9
    c6408     r640      1
    c6409     Obj       10
    c6409     r640      1
    c6410     Obj       11
    c6410     r640      1
    c6410     r641      1
    c6411     Obj       12
    c6411     r640      1
    c6411     r641      1
    c6412     Obj       13
    c6412     r640      1
    c6412     r641      1
    c6413     Obj       14
    c6413     r640      1
    c6413     r641      1
    c6414     Obj       15
    c6414     r640      1
    c6414     r641      1
    c6415     Obj       16
    c6415     r641      1
    c6416     Obj       17
    c6416     r641      1
    c6417     Obj       18
    c6417     r641      1
    c6418     Obj       19
    c6418     r641      1
    c6419     Obj       20
    c6419     r641      1
    c6420     Obj       21
    c6420     r641      1
    c6420     r642      1
    c6421     Obj       22
    c6421     r641      1
    c6421     r642      1
    c6422     Obj       23
    c6422     r641      1
    c6422     r642      1
    c6423     Obj       24
    c6423     r641      1
    c6423     r642      1
    c6424     Obj       25
    c6424     r641      1
    c6424     r642      1
    c6425     Obj       26
    c6425     r642      1
    c6426     Obj       27
    c6426     r642      1
    c6427     Obj       28
    c6427     r642      1
    c6428     Obj       29
    c6428     r642      1
    c6429     Obj       30
    c6429     r642      1
    c6430     Obj       31
    c6430     r642      1
    c6430     r643      1
    c6431     Obj       32
    c6431     r642      1
    c6431     r643      1
    c6432     Obj       33
    c6432     r642      1
    c6432     r643      1
    c6433     Obj       34
    c6433     r642      1
    c6433     r643      1
    c6434     Obj       35
    c6434     r642      1
    c6434     r643      1
    c6435     Obj       36
    c6435     r643      1
    c6436     Obj       37
    c6436     r643      1
    c6437     Obj       38
    c6437     r643      1
    c6438     Obj       39
    c6438     r643      1
    c6439     Obj       40
    c6439     r643      1
    c6440     Obj       41
    c6440     r643      1
    c6440     r644      1
    c6441     Obj       42
    c6441     r643      1
    c6441     r644      1
    c6442     Obj       43
    c6442     r643      1
    c6442     r644      1
    c6443     Obj       44
    c6443     r643      1
    c6443     r644      1
    c6444     Obj       45
    c6444     r643      1
    c6444     r644      1
    c6445     Obj       46
    c6445     r644      1
    c6446     Obj       47
    c6446     r644      1
    c6447     Obj       48
    c6447     r644      1
    c6448     Obj       49
    c6448     r644      1
    c6449     Obj       50
    c6449     r644      1
    c6450     Obj       51
    c6450     r644      1
    c6450     r645      1
    c6451     Obj       52
    c6451     r644      1
    c6451     r645      1
    c6452     Obj       53
    c6452     r644      1
    c6452     r645      1
    c6453     Obj       54
    c6453     r644      1
    c6453     r645      1
    c6454     Obj       55
    c6454     r644      1
    c6454     r645      1
    c6455     Obj       56
    c6455     r645      1
    c6456     Obj       57
    c6456     r645      1
    c6457     Obj       58
    c6457     r645      1
    c6458     Obj       59
    c6458     r645      1
    c6459     Obj       60
    c6459     r645      1
    c6460     Obj       61
    c6460     r645      1
    c6460     r646      1
    c6461     Obj       62
    c6461     r645      1
    c6461     r646      1
    c6462     Obj       63
    c6462     r645      1
    c6462     r646      1
    c6463     Obj       64
    c6463     r645      1
    c6463     r646      1
    c6464     Obj       65
    c6464     r645      1
    c6464     r646      1
    c6465     Obj       66
    c6465     r646      1
    c6466     Obj       67
    c6466     r646      1
    c6467     Obj       68
    c6467     r646      1
    c6468     Obj       69
    c6468     r646      1
    c6469     Obj       70
    c6469     r646      1
    c6470     Obj       71
    c6470     r646      1
    c6470     r647      1
    c6471     Obj       72
    c6471     r646      1
    c6471     r647      1
    c6472     Obj       73
    c6472     r646      1
    c6472     r647      1
    c6473     Obj       74
    c6473     r646      1
    c6473     r647      1
    c6474     Obj       75
    c6474     r646      1
    c6474     r647      1
    c6475     Obj       76
    c6475     r647      1
    c6476     Obj       77
    c6476     r647      1
    c6477     Obj       78
    c6477     r647      1
    c6478     Obj       79
    c6478     r647      1
    c6479     Obj       80
    c6479     r647      1
    c6480     Obj       81
    c6480     r647      1
    c6480     r648      1
    c6481     Obj       82
    c6481     r647      1
    c6481     r648      1
    c6482     Obj       83
    c6482     r647      1
    c6482     r648      1
    c6483     Obj       84
    c6483     r647      1
    c6483     r648      1
    c6484     Obj       85
    c6484     r647      1
    c6484     r648      1
    c6485     Obj       86
    c6485     r648      1
    c6486     Obj       87
    c6486     r648      1
    c6487     Obj       88
    c6487     r648      1
    c6488     Obj       89
    c6488     r648      1
    c6489     Obj       90
    c6489     r648      1
    c6490     Obj       91
    c6490     r648      1
    c6490     r649      1
    c6491     Obj       92
    c6491     r648      1
    c6491     r649      1
    c6492     Obj       93
    c6492     r648      1
    c6492     r649      1
    c6493     Obj       94
    c6493     r648      1
    c6493     r649      1
    c6494     Obj       95
    c6494     r648      1
    c6494     r649      1
    c6495     Obj       96
    c6495     r649      1
    c6496     Obj       97
    c6496     r649      1
    c6497     Obj       98
    c6497     r649      1
    c6498     Obj       99
    c6498     r649      1
    c6499     Obj       100
    c6499     r649      1
    c6500     Obj       1
    c6500     r649      1
    c6500     r650      1
    c6501     Obj       2
    c6501     r649      1
    c6501     r650      1
    c6502     Obj       3
    c6502     r649      1
    c6502     r650      1
    c6503     Obj       4
    c6503     r649      1
    c6503     r650      1
    c6504     Obj       5
    c6504     r649      1
    c6504     r650      1
    c6505     Obj       6
    c6505     r650      1
    c6506     Obj       7
    c6506     r650      1
    c6507     Obj       8
    c6507     r650      1
    c6508     Obj       9
    c6508     r650      1
    c6509     Obj       10
    c6509     r650      1
    c6510     Obj       11
    c6510     r650      1
    c6510     r651      1
    c6511     Obj       12
    c6511     r650      1
    c6511     r651      1
    c6512     Obj       13
    c6512     r650      1
    c6512     r651      1
    c6513     Obj       14
    c6513     r650      1
    c6513     r651      1
    c6514     Obj       15
    c6514     r650      1
    c6514     r651      1
    c6515     Obj       16
    c6515     r651      1
    c6516     Obj       17
    c6516     r651      1
    c6517     Obj       18
    c6517     r651      1
    c6518     Obj       19
    c6518     r651      1
    c6519     Obj       20
    c6519     r651      1
    c6520     Obj       21
    c6520     r651      1
    c6520     r652      1
    c6521     Obj       22
    c6521     r651      1
    c6521     r652      1
    c6522     Obj       23
    c6522     r651      1
    c6522     r652      1
    c6523     Obj       24
    c6523     r651      1
    c6523     r652      1
    c6524     Obj       25
    c6524     r651      1
    c6524     r652      1
    c6525     Obj       26
    c6525     r652      1
    c6526     Obj       27
    c6526     r652      1
    c6527     Obj       28
    c6527     r652      1
    c6528     Obj       29
    c6528     r652      1
    c6529     Obj       30
    c6529     r652      1
    c6530     Obj       31
    c6530     r652      1
    c6530     r653      1
    c6531     Obj       32
    c6531     r652      1
    c6531     r653      1
    c6532     Obj       33
    c6532     r652      1
    c6532     r653      1
    c6533     Obj       34
    c6533     r652      1
    c6533     r653      1
    c6534     Obj       35
    c6534     r652      1
    c6534     r653      1
    c6535     Obj       36
    c6535     r653      1
    c6536     Obj       37
    c6536     r653      1
    c6537     Obj       38
    c6537     r653      1
    c6538     Obj       39
    c6538     r653      1
    c6539     Obj       40
    c6539     r653      1
    c6540     Obj       41
    c6540     r653      1
    c6540     r654      1
    c6541     Obj       42
    c6541     r653      1
    c6541     r654      1
    c6542     Obj       43
    c6542     r653      1
    c6542     r654      1
    c6543     Obj       44
    c6543     r653      1
    c6543     r654      1
    c6544     Obj       45
    c6544     r653      1
    c6544     r654      1
    c6545     Obj       46
    c6545     r654      1
    c6546     Obj       47
    c6546     r654      1
    c6547     Obj       48
    c6547     r654      1
    c6548     Obj       49
    c6548     r654      1
    c6549     Obj       50
    c6549     r654      1
    c6550     Obj       51
    c6550     r654      1
    c6550     r655      1
    c6551     Obj       52
    c6551     r654      1
    c6551     r655      1
    c6552     Obj       53
    c6552     r654      1
    c6552     r655      1
    c6553     Obj       54
    c6553     r654      1
    c6553     r655      1
    c6554     Obj       55
    c6554     r654      1
    c6554     r655      1
    c6555     Obj       56
    c6555     r655      1
    c6556     Obj       57
    c6556     r655      1
    c6557     Obj       58
    c6557     r655      1
    c6558     Obj       59
    c6558     r655      1
    c6559     Obj       60
    c6559     r655      1
    c6560     Obj       61
    c6560     r655      1
    c6560     r656      1
    c6561     Obj       62
    c6561     r655      1
    c6561     r656      1
    c6562     Obj       63
    c6562     r655      1
    c6562     r656      1
    c6563     Obj       64
    c6563     r655      1
    c6563     r656      1
    c6564     Obj       65
    c6564     r655      1
    c6564     r656      1
    c6565     Obj       66
    c6565     r656      1
    c6566     Obj       67
    c6566     r656      1
    c6567     Obj       68
    c6567     r656      1
    c6568     Obj       69
    c6568     r656      1
    c6569     Obj       70
    c6569     r656      1
    c6570     Obj       71
    c6570     r656      1
    c6570     r657      1
    c6571     Obj       72
    c6571     r656      1
    c6571     r657      1
    c6572     Obj       73
    c6572     r656      1
    c6572     r657      1
    c6573     Obj       74
    c6573     r656      1
    c6573     r657      1
    c6574     Obj       75
    c6574     r656      1
    c6574     r657      1
    c6575     Obj       76
    c6575     r657      1
    c6576     Obj       77
    c6576     r657      1
    c6577     Obj       78
    c6577     r657      1
    c6578     Obj       79
    c6578     r657      1
    c6579     Obj       80
    c6579     r657      1
    c6580     Obj       81
    c6580     r657      1
    c6580     r658      1
    c6581     Obj       82
    c6581     r657      1
    c6581     r658      1
    c6582     Obj       83
    c6582     r657      1
    c6582     r658      1
    c6583     Obj       84
    c6583     r657      1
    c6583     r658      1
    c6584     Obj       85
    c6584     r657      1
    c6584     r658      1
    c6585     Obj       86
    c6585     r658      1
    c6586     Obj       87
    c6586     r658      1
    c6587     Obj       88
    c6587     r658      1
    c6588     Obj       89
    c6588     r658      1
    c6589     Obj       90
    c6589     r658      1
    c6590     Obj       91
    c6590     r658      1
    c6590     r659      1
    c6591     Obj       92
    c6591     r658      1
    c6591     r659      1
    c6592     Obj       93
    c6592     r658      1
    c6592     r659      1
    c6593     Obj       94
    c6593     r658      1
    c6593     r659      1
    c6594     Obj       95
    c6594     r658      1
    c6594     r659      1
    c6595     Obj       96
    c6595     r659      1
    c6596     Obj       97
    c6596     r659      1
    c6597     Obj       98
    c6597     r659      1
    c6598     Obj       99
    c6598     r659      1
    c6599     Obj       100
    c6599     r659      1
    c6600     Obj       1
    c6600     r659      1
    c6600     r660      1
    c6601     Obj       2
    c6601     r659      1
    c6601     r660      1
    c6602     Obj       3
    c6602     r659      1
    c6602     r660      1
    c6603     Obj       4
    c6603     r659      1
    c6603     r660      1
    c6604     Obj       5
    c6604     r659      1
    c6604     r660      1
    c6605     Obj       6
    c6605     r660      1
    c6606     Obj       7
    c6606     r660      1
    c6607     Obj       8
    c6607     r660      1
    c6608     Obj       9
    c6608     r660      1
    c6609     Obj       10
    c6609     r660      1
    c6610     Obj       11
    c6610     r660      1
    c6610     r661      1
    c6611     Obj       12
    c6611     r660      1
    c6611     r661      1
    c6612     Obj       13
    c6612     r660      1
    c6612     r661      1
    c6613     Obj       14
    c6613     r660      1
    c6613     r661      1
    c6614     Obj       15
    c6614     r660      1
    c6614     r661      1
    c6615     Obj       16
    c6615     r661      1
    c6616     Obj       17
    c6616     r661      1
    c6617     Obj       18
    c6617     r661      1
    c6618     Obj       19
    c6618     r661      1
    c6619     Obj       20
    c6619     r661      1
    c6620     Obj       21
    c6620     r661      1
    c6620     r662      1
    c6621     Obj       22
    c6621     r661      1
    c6621     r662      1
    c6622     Obj       23
    c6622     r661      1
    c6622     r662      1
    c6623     Obj       24
    c6623     r661      1
    c6623     r662      1
    c6624     Obj       25
    c6624     r661      1
    c6624     r662      1
    c6625     Obj       26
    c6625     r662      1
    c6626     Obj       27
    c6626     r662      1
    c6627     Obj       28
    c6627     r662      1
    c6628     Obj       29
    c6628     r662      1
    c6629     Obj       30
    c6629     r662      1
    c6630     Obj       31
    c6630     r662      1
    c6630     r663      1
    c6631     Obj       32
    c6631     r662      1
    c6631     r663      1
    c6632     Obj       33
    c6632     r662      1
    c6632     r663      1
    c6633     Obj       34
    c6633     r662      1
    c6633     r663      1
    c6634     Obj       35
    c6634     r662      1
    c6634     r663      1
    c6635     Obj       36
    c6635     r663      1
    c6636     Obj       37
    c6636     r663      1
    c6637     Obj       38
    c6637     r663      1
    c6638     Obj       39
    c6638     r663      1
    c6639     Obj       40
    c6639     r663      1
    c6640     Obj       41
    c6640     r663      1
    c6640     r664      1
    c6641     Obj       42
    c6641     r663      1
    c6641     r664      1
    c6642     Obj       43
    c6642     r663      1
    c6642     r664      1
    c6643     Obj       44
    c6643     r663      1
    c6643     r664      1
    c6644     Obj       45
    c6644     r663      1
    c6644     r664      1
    c6645     Obj       46
    c6645     r664      1
    c6646     Obj       47
    c6646     r664      1
    c6647     Obj       48
    c6647     r664      1
    c6648     Obj       49
    c6648     r664      1
    c6649     Obj       50
    c6649     r664      1
    c6650     Obj       51
    c6650     r664      1
    c6650     r665      1
    c6651     Obj       52
    c6651     r664      1
    c6651     r665      1
    c6652     Obj       53
    c6652     r664      1
    c6652     r665      1
    c6653     Obj       54
    c6653     r664      1
    c6653     r665      1
    c6654     Obj       55
    c6654     r664      1
    c6654     r665      1
    c6655     Obj       56
    c6655     r665      1
    c6656     Obj       57
    c6656     r665      1
    c6657     Obj       58
    c6657     r665      1
    c6658     Obj       59
    c6658     r665      1
    c6659     Obj       60
    c6659     r665      1
    c6660     Obj       61
    c6660     r665      1
    c6660     r666      1
    c6661     Obj       62
    c6661     r665      1
    c6661     r666      1
    c6662     Obj       63
    c6662     r665      1
    c6662     r666      1
    c6663     Obj       64
    c6663     r665      1
    c6663     r666      1
    c6664     Obj       65
    c6664     r665      1
    c6664     r666      1
    c6665     Obj       66
    c6665     r666      1
    c6666     Obj       67
    c6666     r666      1
    c6667     Obj       68
    c6667     r666      1
    c6668     Obj       69
    c6668     r666      1
    c6669     Obj       70
    c6669     r666      1
    c6670     Obj       71
    c6670     r666      1
    c6670     r667      1
    c6671     Obj       72
    c6671     r666      1
    c6671     r667      1
    c6672     Obj       73
    c6672     r666      1
    c6672     r667      1
    c6673     Obj       74
    c6673     r666      1
    c6673     r667      1
    c6674     Obj       75
    c6674     r666      1
    c6674     r667      1
    c6675     Obj       76
    c6675     r667      1
    c6676     Obj       77
    c6676     r667      1
    c6677     Obj       78
    c6677     r667      1
    c6678     Obj       79
    c6678     r667      1
    c6679     Obj       80
    c6679     r667      1
    c6680     Obj       81
    c6680     r667      1
    c6680     r668      1
    c6681     Obj       82
    c6681     r667      1
    c6681     r668      1
    c6682     Obj       83
    c6682     r667      1
    c6682     r668      1
    c6683     Obj       84
    c6683     r667      1
    c6683     r668      1
    c6684     Obj       85
    c6684     r667      1
    c6684     r668      1
    c6685     Obj       86
    c6685     r668      1
    c6686     Obj       87
    c6686     r668      1
    c6687     Obj       88
    c6687     r668      1
    c6688     Obj       89
    c6688     r668      1
    c6689     Obj       90
    c6689     r668      1
    c6690     Obj       91
    c6690     r668      1
    c6690     r669      1
    c6691     Obj       92
    c6691     r668      1
    c6691     r669      1
    c6692     Obj       93
    c6692     r668      1
    c6692     r669      1
    c6693     Obj       94
    c6693     r668      1
    c6693     r669      1
    c6694     Obj       95
    c6694     r668      1
    c6694     r669      1
    c6695     Obj       96
    c6695     r669      1
    c6696     Obj       97
    c6696     r669      1
    c6697     Obj       98
    c6697     r669      1
    c6698     Obj       99
    c6698     r669      1
    c6699     Obj       100
    c6699     r669      1
    c6700     Obj       1
    c6700     r669      1
    c6700     r670      1
    c6701     Obj       2
    c6701     r669      1
    c6701     r670      1
    c6702     Obj       3
    c6702     r669      1
    c6702     r670      1
    c6703     Obj       4
    c6703     r669      1
    c6703     r670      1
    c6704     Obj       5
    c6704     r669      1
    c6704     r670      1
    c6705     Obj       6
    c6705     r670      1
    c6706     Obj       7
    c6706     r670      1
    c6707     Obj       8
    c6707     r670      1
    c6708     Obj       9
    c6708     r670      1
    c6709     Obj       10
    c6709     r670      1
    c6710     Obj       11
    c6710     r670      1
    c6710     r671      1
    c6711     Obj       12
    c6711     r670      1
    c6711     r671      1
    c6712     Obj       13
    c6712     r670      1
    c6712     r671      1
    c6713     Obj       14
    c6713     r670      1
    c6713     r671      1
    c6714     Obj       15
    c6714     r670      1
    c6714     r671      1
    c6715     Obj       16
    c6715     r671      1
    c6716     Obj       17
    c6716     r671      1
    c6717     Obj       18
    c6717     r671      1
    c6718     Obj       19
    c6718     r671      1
    c6719     Obj       20
    c6719     r671      1
    c6720     Obj       21
    c6720     r671      1
    c6720     r672      1
    c6721     Obj       22
    c6721     r671      1
    c6721     r672      1
    c6722     Obj       23
    c6722     r671      1
    c6722     r672      1
    c6723     Obj       24
    c6723     r671      1
    c6723     r672      1
    c6724     Obj       25
    c6724     r671      1
    c6724     r672      1
    c6725     Obj       26
    c6725     r672      1
    c6726     Obj       27
    c6726     r672      1
    c6727     Obj       28
    c6727     r672      1
    c6728     Obj       29
    c6728     r672      1
    c6729     Obj       30
    c6729     r672      1
    c6730     Obj       31
    c6730     r672      1
    c6730     r673      1
    c6731     Obj       32
    c6731     r672      1
    c6731     r673      1
    c6732     Obj       33
    c6732     r672      1
    c6732     r673      1
    c6733     Obj       34
    c6733     r672      1
    c6733     r673      1
    c6734     Obj       35
    c6734     r672      1
    c6734     r673      1
    c6735     Obj       36
    c6735     r673      1
    c6736     Obj       37
    c6736     r673      1
    c6737     Obj       38
    c6737     r673      1
    c6738     Obj       39
    c6738     r673      1
    c6739     Obj       40
    c6739     r673      1
    c6740     Obj       41
    c6740     r673      1
    c6740     r674      1
    c6741     Obj       42
    c6741     r673      1
    c6741     r674      1
    c6742     Obj       43
    c6742     r673      1
    c6742     r674      1
    c6743     Obj       44
    c6743     r673      1
    c6743     r674      1
    c6744     Obj       45
    c6744     r673      1
    c6744     r674      1
    c6745     Obj       46
    c6745     r674      1
    c6746     Obj       47
    c6746     r674      1
    c6747     Obj       48
    c6747     r674      1
    c6748     Obj       49
    c6748     r674      1
    c6749     Obj       50
    c6749     r674      1
    c6750     Obj       51
    c6750     r674      1
    c6750     r675      1
    c6751     Obj       52
    c6751     r674      1
    c6751     r675      1
    c6752     Obj       53
    c6752     r674      1
    c6752     r675      1
    c6753     Obj       54
    c6753     r674      1
    c6753     r675      1
    c6754     Obj       55
    c6754     r674      1
    c6754     r675      1
    c6755     Obj       56
    c6755     r675      1
    c6756     Obj       57
    c6756     r675      1
    c6757     Obj       58
    c6757     r675      1
    c6758     Obj       59
    c6758     r675      1
    c6759     Obj       60
    c6759     r675      1
    c6760     Obj       61
    c6760     r675      1
    c6760     r676      1
    c6761     Obj       62
    c6761     r675      1
    c6761     r676      1
    c6762     Obj       63
    c6762     r675      1
    c6762     r676      1
    c6763     Obj       64
    c6763     r675      1
    c6763     r676      1
    c6764     Obj       65
    c6764     r675      1
    c6764     r676      1
    c6765     Obj       66
    c6765     r676      1
    c6766     Obj       67
    c6766     r676      1
    c6767     Obj       68
    c6767     r676      1
    c6768     Obj       69
    c6768     r676      1
    c6769     Obj       70
    c6769     r676      1
    c6770     Obj       71
    c6770     r676      1
    c6770     r677      1
    c6771     Obj       72
    c6771     r676      1
    c6771     r677      1
    c6772     Obj       73
    c6772     r676      1
    c6772     r677      1
    c6773     Obj       74
    c6773     r676      1
    c6773     r677      1
    c6774     Obj       75
    c6774     r676      1
    c6774     r677      1
    c6775     Obj       76
    c6775     r677      1
    c6776     Obj       77
    c6776     r677      1
    c6777     Obj       78
    c6777     r677      1
    c6778     Obj       79
    c6778     r677      1
    c6779     Obj       80
    c6779     r677      1
    c6780     Obj       81
    c6780     r677      1
    c6780     r678      1
    c6781     Obj       82
    c6781     r677      1
    c6781     r678      1
    c6782     Obj       83
    c6782     r677      1
    c6782     r678      1
    c6783     Obj       84
    c6783     r677      1
    c6783     r678      1
    c6784     Obj       85
    c6784     r677      1
    c6784     r678      1
    c6785     Obj       86
    c6785     r678      1
    c6786     Obj       87
    c6786     r678      1
    c6787     Obj       88
    c6787     r678      1
    c6788     Obj       89
    c6788     r678      1
    c6789     Obj       90
    c6789     r678      1
    c6790     Obj       91
    c6790     r678      1
    c6790     r679      1
    c6791     Obj       92
    c6791     r678      1
    c6791     r679      1
    c6792     Obj       93
    c6792     r678      1
    c6792     r679      1
    c6793     Obj       94
    c6793     r678      1
    c6793     r679      1
    c6794     Obj       95
    c6794     r678      1
    c6794     r679      1
    c6795     Obj       96
    c6795     r679      1
    c6796     Obj       97
    c6796     r679      1
    c6797     Obj       98
    c6797     r679      1
    c6798     Obj       99
    c6798     r679      1
    c6799     Obj       100
    c6799     r679      1
    c6800     Obj       1
    c6800     r679      1
    c6800     r680      1
    c6801     Obj       2
    c6801     r679      1
    c6801     r680      1
    c6802     Obj       3
    c6802     r679      1
    c6802     r680      1
    c6803     Obj       4
    c6803     r679      1
    c6803     r680      1
    c6804     Obj       5
    c6804     r679      1
    c6804     r680      1
    c6805     Obj       6
    c6805     r680      1
    c6806     Obj       7
    c6806     r680      1
    c6807     Obj       8
    c6807     r680      1
    c6808     Obj       9
    c6808     r680      1
    c6809     Obj       10
    c6809     r680      1
    c6810     Obj       11
    c6810     r680      1
    c6810     r681      1
    c6811     Obj       12
    c6811     r680      1
    c6811     r681      1
    c6812     Obj       13
    c6812     r680      1
    c6812     r681      1
    c6813     Obj       14
    c6813     r680      1
    c6813     r681      1
    c6814     Obj       15
    c6814     r680      1
    c6814     r681      1
    c6815     Obj       16
    c6815     r681      1
    c6816     Obj       17
    c6816     r681      1
    c6817     Obj       18
    c6817     r681      1
    c6818     Obj       19
    c6818     r681      1
    c6819     Obj       20
    c6819     r681      1
    c6820     Obj       21
    c6820     r681      1
    c6820     r682      1
    c6821     Obj       22
    c6821     r681      1
    c6821     r682      1
    c6822     Obj       23
    c6822     r681      1
    c6822     r682      1
    c6823     Obj       24
    c6823     r681      1
    c6823     r682      1
    c6824     Obj       25
    c6824     r681      1
    c6824     r682      1
    c6825     Obj       26
    c6825     r682      1
    c6826     Obj       27
    c6826     r682      1
    c6827     Obj       28
    c6827     r682      1
    c6828     Obj       29
    c6828     r682      1
    c6829     Obj       30
    c6829     r682      1
    c6830     Obj       31
    c6830     r682      1
    c6830     r683      1
    c6831     Obj       32
    c6831     r682      1
    c6831     r683      1
    c6832     Obj       33
    c6832     r682      1
    c6832     r683      1
    c6833     Obj       34
    c6833     r682      1
    c6833     r683      1
    c6834     Obj       35
    c6834     r682      1
    c6834     r683      1
    c6835     Obj       36
    c6835     r683      1
    c6836     Obj       37
    c6836     r683      1
    c6837     Obj       38
    c6837     r683      1
    c6838     Obj       39
    c6838     r683      1
    c6839     Obj       40
    c6839     r683      1
    c6840     Obj       41
    c6840     r683      1
    c6840     r684      1
    c6841     Obj       42
    c6841     r683      1
    c6841     r684      1
    c6842     Obj       43
    c6842     r683      1
    c6842     r684      1
    c6843     Obj       44
    c6843     r683      1
    c6843     r684      1
    c6844     Obj       45
    c6844     r683      1
    c6844     r684      1
    c6845     Obj       46
    c6845     r684      1
    c6846     Obj       47
    c6846     r684      1
    c6847     Obj       48
    c6847     r684      1
    c6848     Obj       49
    c6848     r684      1
    c6849     Obj       50
    c6849     r684      1
    c6850     Obj       51
    c6850     r684      1
    c6850     r685      1
    c6851     Obj       52
    c6851     r684      1
    c6851     r685      1
    c6852     Obj       53
    c6852     r684      1
    c6852     r685      1
    c6853     Obj       54
    c6853     r684      1
    c6853     r685      1
    c6854     Obj       55
    c6854     r684      1
    c6854     r685      1
    c6855     Obj       56
    c6855     r685      1
    c6856     Obj       57
    c6856     r685      1
    c6857     Obj       58
    c6857     r685      1
    c6858     Obj       59
    c6858     r685      1
    c6859     Obj       60
    c6859     r685      1
    c6860     Obj       61
    c6860     r685      1
    c6860     r686      1
    c6861     Obj       62
    c6861     r685      1
    c6861     r686      1
    c6862     Obj       63
    c6862     r685      1
    c6862     r686      1
    c6863     Obj       64
    c6863     r685      1
    c6863     r686      1
    c6864     Obj       65
    c6864     r685      1
    c6864     r686      1
    c6865     Obj       66
    c6865     r686      1
    c6866     Obj       67
    c6866     r686      1
    c6867     Obj       68
    c6867     r686      1
    c6868     Obj       69
    c6868     r686      1
    c6869     Obj       70
    c6869     r686      1
    c6870     Obj       71
    c6870     r686      1
    c6870     r687      1
    c6871     Obj       72
    c6871     r686      1
    c6871     r687      1
    c6872     Obj       73
    c6872     r686      1
    c6872     r687      1
    c6873     Obj       74
    c6873     r686      1
    c6873     r687      1
    c6874     Obj       75
    c6874     r686      1
    c6874     r687      1
    c6875     Obj       76
    c6875     r687      1
    c6876     Obj       77
    c6876     r687      1
    c6877     Obj       78
    c6877     r687      1
    c6878     Obj       79
    c6878     r687      1
    c6879     Obj       80
    c6879     r687      1
    c6880     Obj       81
    c6880     r687      1
    c6880     r688      1
    c6881     Obj       82
    c6881     r687      1
    c6881     r688      1
    c6882     Obj       83
    c6882     r687      1
    c6882     r688      1
    c6883     Obj       84
    c6883     r687      1
    c6883     r688      1
    c6884     Obj       85
    c6884     r687      1
    c6884     r688      1
    c6885     Obj       86
    c6885     r688      1
    c6886     Obj       87
    c6886     r688      1
    c6887     Obj       88
    c6887     r688      1
    c6888     Obj       89
    c6888     r688      1
    c6889     Obj       90
    c6889     r688      1
    c6890     Obj       91
    c6890     r688      1
    c6890     r689      1
    c6891     Obj       92
    c6891     r688      1
    c6891     r689      1
    c6892     Obj       93
    c6892     r688      1
    c6892     r689      1
    c6893     Obj       94
    c6893     r688      1
    c6893     r689      1
    c6894     Obj       95
    c6894     r688      1
    c6894     r689      1
    c6895     Obj       96
    c6895     r689      1
    c6896     Obj       97
    c6896     r689      1
    c6897     Obj       98
    c6897     r689      1
    c6898     Obj       99
    c6898     r689      1
    c6899     Obj       100
    c6899     r689      1
    c6900     Obj       1
    c6900     r689      1
    c6900     r690      1
    c6901     Obj       2
    c6901     r689      1
    c6901     r690      1
    c6902     Obj       3
    c6902     r689      1
    c6902     r690      1
    c6903     Obj       4
    c6903     r689      1
    c6903     r690      1
    c6904     Obj       5
    c6904     r689      1
    c6904     r690      1
    c6905     Obj       6
    c6905     r690      1
    c6906     Obj       7
    c6906     r690      1
    c6907     Obj       8
    c6907     r690      1
    c6908     Obj       9
    c6908     r690      1
    c6909     Obj       10
    c6909     r690      1
    c6910     Obj       11
    c6910     r690      1
    c6910     r691      1
    c6911     Obj       12
    c6911     r690      1
    c6911     r691      1
    c6912     Obj       13
    c6912     r690      1
    c6912     r691      1
    c6913     Obj       14
    c6913     r690      1
    c6913     r691      1
    c6914     Obj       15
    c6914     r690      1
    c6914     r691      1
    c6915     Obj       16
    c6915     r691      1
    c6916     Obj       17
    c6916     r691      1
    c6917     Obj       18
    c6917     r691      1
    c6918     Obj       19
    c6918     r691      1
    c6919     Obj       20
    c6919     r691      1
    c6920     Obj       21
    c6920     r691      1
    c6920     r692      1
    c6921     Obj       22
    c6921     r691      1
    c6921     r692      1
    c6922     Obj       23
    c6922     r691      1
    c6922     r692      1
    c6923     Obj       24
    c6923     r691      1
    c6923     r692      1
    c6924     Obj       25
    c6924     r691      1
    c6924     r692      1
    c6925     Obj       26
    c6925     r692      1
    c6926     Obj       27
    c6926     r692      1
    c6927     Obj       28
    c6927     r692      1
    c6928     Obj       29
    c6928     r692      1
    c6929     Obj       30
    c6929     r692      1
    c6930     Obj       31
    c6930     r692      1
    c6930     r693      1
    c6931     Obj       32
    c6931     r692      1
    c6931     r693      1
    c6932     Obj       33
    c6932     r692      1
    c6932     r693      1
    c6933     Obj       34
    c6933     r692      1
    c6933     r693      1
    c6934     Obj       35
    c6934     r692      1
    c6934     r693      1
    c6935     Obj       36
    c6935     r693      1
    c6936     Obj       37
    c6936     r693      1
    c6937     Obj       38
    c6937     r693      1
    c6938     Obj       39
    c6938     r693      1
    c6939     Obj       40
    c6939     r693      1
    c6940     Obj       41
    c6940     r693      1
    c6940     r694      1
    c6941     Obj       42
    c6941     r693      1
    c6941     r694      1
    c6942     Obj       43
    c6942     r693      1
    c6942     r694      1
    c6943     Obj       44
    c6943     r693      1
    c6943     r694      1
    c6944     Obj       45
    c6944     r693      1
    c6944     r694      1
    c6945     Obj       46
    c6945     r694      1
    c6946     Obj       47
    c6946     r694      1
    c6947     Obj       48
    c6947     r694      1
    c6948     Obj       49
    c6948     r694      1
    c6949     Obj       50
    c6949     r694      1
    c6950     Obj       51
    c6950     r694      1
    c6950     r695      1
    c6951     Obj       52
    c6951     r694      1
    c6951     r695      1
    c6952     Obj       53
    c6952     r694      1
    c6952     r695      1
    c6953     Obj       54
    c6953     r694      1
    c6953     r695      1
    c6954     Obj       55
    c6954     r694      1
    c6954     r695      1
    c6955     Obj       56
    c6955     r695      1
    c6956     Obj       57
    c6956     r695      1
    c6957     Obj       58
    c6957     r695      1
    c6958     Obj       59
    c6958     r695      1
    c6959     Obj       60
    c6959     r695      1
    c6960     Obj       61
    c6960     r695      1
    c6960     r696      1
    c6961     Obj       62
    c6961     r695      1
    c6961     r696      1
    c6962     Obj       63
    c6962     r695      1
    c6962     r696      1
    c6963     Obj       64
    c6963     r695      1
    c6963     r696      1
    c6964     Obj       65
    c6964     r695      1
    c6964     r696      1
    c6965     Obj       66
    c6965     r696      1
    c6966     Obj       67
    c6966     r696      1
    c6967     Obj       68
    c6967     r696      1
    c6968     Obj       69
    c6968     r696      1
    c6969     Obj       70
    c6969     r696      1
    c6970     Obj       71
    c6970     r696      1
    c6970     r697      1
    c6971     Obj       72
    c6971     r696      1
    c6971     r697      1
    c6972     Obj       73
    c6972     r696      1
    c6972     r697      1
    c6973     Obj       74
    c6973     r696      1
    c6973     r697      1
    c6974     Obj       75
    c6974     r696      1
    c6974     r697      1
    c6975     Obj       76
    c6975     r697      1
    c6976     Obj       77
    c6976     r697      1
    c6977     Obj       78
    c6977     r697      1
    c6978     Obj       79
    c6978     r697      1
    c6979     Obj       80
    c6979     r697      1
    c6980     Obj       81
    c6980     r697      1
    c6980     r698      1
    c6981     Obj       82
    c6981     r697      1
    c6981     r698      1
    c6982     Obj       83
    c6982     r697      1
    c6982     r698      1
    c6983     Obj       84
    c6983     r697      1
    c6983     r698      1
    c6984     Obj       85
    c6984     r697      1
    c6984     r698      1
    c6985     Obj       86
    c6985     r698      1
    c6986     Obj       87
    c6986     r698      1
    c6987     Obj       88
    c6987     r698      1
    c6988     Obj       89
    c6988     r698      1
    c6989     Obj       90
    c6989     r698      1
    c6990     Obj       91
    c6990     r698      1
    c6990     r699      1
    c6991     Obj       92
    c6991     r698      1
    c6991     r699      1
    c6992     Obj       93
    c6992     r698      1
    c6992     r699      1
    c6993     Obj       94
    c6993     r698      1
    c6993     r699      1
    c6994     Obj       95
    c6994     r698      1
    c6994     r699      1
    c6995     Obj       96
    c6995     r699      1
    c6996     Obj       97
    c6996     r699      1
    c6997     Obj       98
    c6997     r699      1
    c6998     Obj       99
    c6998     r699      1
    c6999     Obj       100
    c6999     r699      1
    c7000     Obj       1
    c7000     r699      1
    c7000     r700      1
    c7001     Obj       2
    c7001     r699      1
    c7001     r700      1
    c7002     Obj       3
    c7002     r699      1
    c7002     r700      1
    c7003     Obj       4
    c7003     r699      1
    c7003     r700      1
    c7004     Obj       5
    c7004     r699      1
    c7004     r700      1
    c7005     Obj       6
    c7005     r700      1
    c7006     Obj       7
    c7006     r700      1
    c7007     Obj       8
    c7007     r700      1
    c7008     Obj       9
    c7008     r700      1
    c7009     Obj       10
    c7009     r700      1
    c7010     Obj       11
    c7010     r700      1
    c7010     r701      1
    c7011     Obj       12
    c7011     r700      1
    c7011     r701      1
    c7012     Obj       13
    c7012     r700      1
    c7012     r701      1
    c7013     Obj       14
    c7013     r700      1
    c7013     r701      1
    c7014     Obj       15
    c7014     r700      1
    c7014     r701      1
    c7015     Obj       16
    c7015     r701      1
    c7016     Obj       17
    c7016     r701      1
    c7017     Obj       18
    c7017     r701      1
    c7018     Obj       19
    c7018     r701      1
    c7019     Obj       20
    c7019     r701      1
    c7020     Obj       21
    c7020     r701      1
    c7020     r702      1
    c7021     Obj       22
    c7021     r701      1
    c7021     r702      1
    c7022     Obj       23
    c7022     r701      1
    c7022     r702      1
    c7023     Obj       24
    c7023     r701      1
    c7023     r702      1
    c7024     Obj       25
    c7024     r701      1
    c7024     r702      1
    c7025     Obj       26
    c7025     r702      1
    c7026     Obj       27
    c7026     r702      1
    c7027     Obj       28
    c7027     r702      1
    c7028     Obj       29
    c7028     r702      1
    c7029     Obj       30
    c7029     r702      1
    c7030     Obj       31
    c7030     r702      1
    c7030     r703      1
    c7031     Obj       32
    c7031     r702      1
    c7031     r703      1
    c7032     Obj       33
    c7032     r702      1
    c7032     r703      1
    c7033     Obj       34
    c7033     r702      1
    c7033     r703      1
    c7034     Obj       35
    c7034     r702      1
    c7034     r703      1
    c7035     Obj       36
    c7035     r703      1
    c7036     Obj       37
    c7036     r703      1
    c7037     Obj       38
    c7037     r703      1
    c7038     Obj       39
    c7038     r703      1
    c7039     Obj       40
    c7039     r703      1
    c7040     Obj       41
    c7040     r703      1
    c7040     r704      1
    c7041     Obj       42
    c7041     r703      1
    c7041     r704      1
    c7042     Obj       43
    c7042     r703      1
    c7042     r704      1
    c7043     Obj       44
    c7043     r703      1
    c7043     r704      1
    c7044     Obj       45
    c7044     r703      1
    c7044     r704      1
    c7045     Obj       46
    c7045     r704      1
    c7046     Obj       47
    c7046     r704      1
    c7047     Obj       48
    c7047     r704      1
    c7048     Obj       49
    c7048     r704      1
    c7049     Obj       50
    c7049     r704      1
    c7050     Obj       51
    c7050     r704      1
    c7050     r705      1
    c7051     Obj       52
    c7051     r704      1
    c7051     r705      1
    c7052     Obj       53
    c7052     r704      1
    c7052     r705      1
    c7053     Obj       54
    c7053     r704      1
    c7053     r705      1
    c7054     Obj       55
    c7054     r704      1
    c7054     r705      1
    c7055     Obj       56
    c7055     r705      1
    c7056     Obj       57
    c7056     r705      1
    c7057     Obj       58
    c7057     r705      1
    c7058     Obj       59
    c7058     r705      1
    c7059     Obj       60
    c7059     r705      1
    c7060     Obj       61
    c7060     r705      1
    c7060     r706      1
    c7061     Obj       62
    c7061     r705      1
    c7061     r706      1
    c7062     Obj       63
    c7062     r705      1
    c7062     r706      1
    c7063     Obj       64
    c7063     r705      1
    c7063     r706      1
    c7064     Obj       65
    c7064     r705      1
    c7064     r706      1
    c7065     Obj       66
    c7065     r706      1
    c7066     Obj       67
    c7066     r706      1
    c7067     Obj       68
    c7067     r706      1
    c7068     Obj       69
    c7068     r706      1
    c7069     Obj       70
    c7069     r706      1
    c7070     Obj       71
    c7070     r706      1
    c7070     r707      1
    c7071     Obj       72
    c7071     r706      1
    c7071     r707      1
    c7072     Obj       73
    c7072     r706      1
    c7072     r707      1
    c7073     Obj       74
    c7073     r706      1
    c7073     r707      1
    c7074     Obj       75
    c7074     r706      1
    c7074     r707      1
    c7075     Obj       76
    c7075     r707      1
    c7076     Obj       77
    c7076     r707      1
    c7077     Obj       78
    c7077     r707      1
    c7078     Obj       79
    c7078     r707      1
    c7079     Obj       80
    c7079     r707      1
    c7080     Obj       81
    c7080     r707      1
    c7080     r708      1
    c7081     Obj       82
    c7081     r707      1
    c7081     r708      1
    c7082     Obj       83
    c7082     r707      1
    c7082     r708      1
    c7083     Obj       84
    c7083     r707      1
    c7083     r708      1
    c7084     Obj       85
    c7084     r707      1
    c7084     r708      1
    c7085     Obj       86
    c7085     r708      1
    c7086     Obj       87
    c7086     r708      1
    c7087     Obj       88
    c7087     r708      1
    c7088     Obj       89
    c7088     r708      1
    c7089     Obj       90
    c7089     r708      1
    c7090     Obj       91
    c7090     r708      1
    c7090     r709      1
    c7091     Obj       92
    c7091     r708      1
    c7091     r709      1
    c7092     Obj       93
    c7092     r708      1
    c7092     r709      1
    c7093     Obj       94
    c7093     r708      1
    c7093     r709      1
    c7094     Obj       95
    c7094     r708      1
    c7094     r709      1
    c7095     Obj       96
    c7095     r709      1
    c7096     Obj       97
    c7096     r709      1
    c7097     Obj       98
    c7097     r709      1
    c7098     Obj       99
    c7098     r709      1
    c7099     Obj       100
    c7099     r709      1
    c7100     Obj       1
    c7100     r709      1
    c7100     r710      1
    c7101     Obj       2
    c7101     r709      1
    c7101     r710      1
    c7102     Obj       3
    c7102     r709      1
    c7102     r710      1
    c7103     Obj       4
    c7103     r709      1
    c7103     r710      1
    c7104     Obj       5
    c7104     r709      1
    c7104     r710      1
    c7105     Obj       6
    c7105     r710      1
    c7106     Obj       7
    c7106     r710      1
    c7107     Obj       8
    c7107     r710      1
    c7108     Obj       9
    c7108     r710      1
    c7109     Obj       10
    c7109     r710      1
    c7110     Obj       11
    c7110     r710      1
    c7110     r711      1
    c7111     Obj       12
    c7111     r710      1
    c7111     r711      1
    c7112     Obj       13
    c7112     r710      1
    c7112     r711      1
    c7113     Obj       14
    c7113     r710      1
    c7113     r711      1
    c7114     Obj       15
    c7114     r710      1
    c7114     r711      1
    c7115     Obj       16
    c7115     r711      1
    c7116     Obj       17
    c7116     r711      1
    c7117     Obj       18
    c7117     r711      1
    c7118     Obj       19
    c7118     r711      1
    c7119     Obj       20
    c7119     r711      1
    c7120     Obj       21
    c7120     r711      1
    c7120     r712      1
    c7121     Obj       22
    c7121     r711      1
    c7121     r712      1
    c7122     Obj       23
    c7122     r711      1
    c7122     r712      1
    c7123     Obj       24
    c7123     r711      1
    c7123     r712      1
    c7124     Obj       25
    c7124     r711      1
    c7124     r712      1
    c7125     Obj       26
    c7125     r712      1
    c7126     Obj       27
    c7126     r712      1
    c7127     Obj       28
    c7127     r712      1
    c7128     Obj       29
    c7128     r712      1
    c7129     Obj       30
    c7129     r712      1
    c7130     Obj       31
    c7130     r712      1
    c7130     r713      1
    c7131     Obj       32
    c7131     r712      1
    c7131     r713      1
    c7132     Obj       33
    c7132     r712      1
    c7132     r713      1
    c7133     Obj       34
    c7133     r712      1
    c7133     r713      1
    c7134     Obj       35
    c7134     r712      1
    c7134     r713      1
    c7135     Obj       36
    c7135     r713      1
    c7136     Obj       37
    c7136     r713      1
    c7137     Obj       38
    c7137     r713      1
    c7138     Obj       39
    c7138     r713      1
    c7139     Obj       40
    c7139     r713      1
    c7140     Obj       41
    c7140     r713      1
    c7140     r714      1
    c7141     Obj       42
    c7141     r713      1
    c7141     r714      1
    c7142     Obj       43
    c7142     r713      1
    c7142     r714      1
    c7143     Obj       44
    c7143     r713      1
    c7143     r714      1
    c7144     Obj       45
    c7144     r713      1
    c7144     r714      1
    c7145     Obj       46
    c7145     r714      1
    c7146     Obj       47
    c7146     r714      1
    c7147     Obj       48
    c7147     r714      1
    c7148     Obj       49
    c7148     r714      1
    c7149     Obj       50
    c7149     r714      1
    c7150     Obj       51
    c7150     r714      1
    c7150     r715      1
    c7151     Obj       52
    c7151     r714      1
    c7151     r715      1
    c7152     Obj       53
    c7152     r714      1
    c7152     r715      1
    c7153     Obj       54
    c7153     r714      1
    c7153     r715      1
    c7154     Obj       55
    c7154     r714      1
    c7154     r715      1
    c7155     Obj       56
    c7155     r715      1
    c7156     Obj       57
    c7156     r715      1
    c7157     Obj       58
    c7157     r715      1
    c7158     Obj       59
    c7158     r715      1
    c7159     Obj       60
    c7159     r715      1
    c7160     Obj       61
    c7160     r715      1
    c7160     r716      1
    c7161     Obj       62
    c7161     r715      1
    c7161     r716      1
    c7162     Obj       63
    c7162     r715      1
    c7162     r716      1
    c7163     Obj       64
    c7163     r715      1
    c7163     r716      1
    c7164     Obj       65
    c7164     r715      1
    c7164     r716      1
    c7165     Obj       66
    c7165     r716      1
    c7166     Obj       67
    c7166     r716      1
    c7167     Obj       68
    c7167     r716      1
    c7168     Obj       69
    c7168     r716      1
    c7169     Obj       70
    c7169     r716      1
    c7170     Obj       71
    c7170     r716      1
    c7170     r717      1
    c7171     Obj       72
    c7171     r716      1
    c7171     r717      1
    c7172     Obj       73
    c7172     r716      1
    c7172     r717      1
    c7173     Obj       74
    c7173     r716      1
    c7173     r717      1
    c7174     Obj       75
    c7174     r716      1
    c7174     r717      1
    c7175     Obj       76
    c7175     r717      1
    c7176     Obj       77
    c7176     r717      1
    c7177     Obj       78
    c7177     r717      1
    c7178     Obj       79
    c7178     r717      1
    c7179     Obj       80
    c7179     r717      1
    c7180     Obj       81
    c7180     r717      1
    c7180     r718      1
    c7181     Obj       82
    c7181     r717      1
    c7181     r718      1
    c7182     Obj       83
    c7182     r717      1
    c7182     r718      1
    c7183     Obj       84
    c7183     r717      1
    c7183     r718      1
    c7184     Obj       85
    c7184     r717      1
    c7184     r718      1
    c7185     Obj       86
    c7185     r718      1
    c7186     Obj       87
    c7186     r718      1
    c7187     Obj       88
    c7187     r718      1
    c7188     Obj       89
    c7188     r718      1
    c7189     Obj       90
    c7189     r718      1
    c7190     Obj       91
    c7190     r718      1
    c7190     r719      1
    c7191     Obj       92
    c7191     r718      1
    c7191     r719      1
    c7192     Obj       93
    c7192     r718      1
    c7192     r719      1
    c7193     Obj       94
    c7193     r718      1
    c7193     r719      1
    c7194     Obj       95
    c7194     r718      1
    c7194     r719      1
    c7195     Obj       96
    c7195     r719      1
    c7196     Obj       97
    c7196     r719      1
    c7197     Obj       98
    c7197     r719      1
    c7198     Obj       99
    c7198     r719      1
    c7199     Obj       100
    c7199     r719      1
    c7200     Obj       1
    c7200     r719      1
    c7200     r720      1
    c7201     Obj       2
    c7201     r719      1
    c7201     r720      1
    c7202     Obj       3
    c7202     r719      1
    c7202     r720      1
    c7203     Obj       4
    c7203     r719      1
    c7203     r720      1
    c7204     Obj       5
    c7204     r719      1
    c7204     r720      1
    c7205     Obj       6
    c7205     r720      1
    c7206     Obj       7
    c7206     r720      1
    c7207     Obj       8
    c7207     r720      1
    c7208     Obj       9
    c7208     r720      1
    c7209     Obj       10
    c7209     r720      1
    c7210     Obj       11
    c7210     r720      1
    c7210     r721      1
    c7211     Obj       12
    c7211     r720      1
    c7211     r721      1
    c7212     Obj       13
    c7212     r720      1
    c7212     r721      1
    c7213     Obj       14
    c7213     r720      1
    c7213     r721      1
    c7214     Obj       15
    c7214     r720      1
    c7214     r721      1
    c7215     Obj       16
    c7215     r721      1
    c7216     Obj       17
    c7216     r721      1
    c7217     Obj       18
    c7217     r721      1
    c7218     Obj       19
    c7218     r721      1
    c7219     Obj       20
    c7219     r721      1
    c7220     Obj       21
    c7220     r721      1
    c7220     r722      1
    c7221     Obj       22
    c7221     r721      1
    c7221     r722      1
    c7222     Obj       23
    c7222     r721      1
    c7222     r722      1
    c7223     Obj       24
    c7223     r721      1
    c7223     r722      1
    c7224     Obj       25
    c7224     r721      1
    c7224     r722      1
    c7225     Obj       26
    c7225     r722      1
    c7226     Obj       27
    c7226     r722      1
    c7227     Obj       28
    c7227     r722      1
    c7228     Obj       29
    c7228     r722      1
    c7229     Obj       30
    c7229     r722      1
    c7230     Obj       31
    c7230     r722      1
    c7230     r723      1
    c7231     Obj       32
    c7231     r722      1
    c7231     r723      1
    c7232     Obj       33
    c7232     r722      1
    c7232     r723      1
    c7233     Obj       34
    c7233     r722      1
    c7233     r723      1
    c7234     Obj       35
    c7234     r722      1
    c7234     r723      1
    c7235     Obj       36
    c7235     r723      1
    c7236     Obj       37
    c7236     r723      1
    c7237     Obj       38
    c7237     r723      1
    c7238     Obj       39
    c7238     r723      1
    c7239     Obj       40
    c7239     r723      1
    c7240     Obj       41
    c7240     r723      1
    c7240     r724      1
    c7241     Obj       42
    c7241     r723      1
    c7241     r724      1
    c7242     Obj       43
    c7242     r723      1
    c7242     r724      1
    c7243     Obj       44
    c7243     r723      1
    c7243     r724      1
    c7244     Obj       45
    c7244     r723      1
    c7244     r724      1
    c7245     Obj       46
    c7245     r724      1
    c7246     Obj       47
    c7246     r724      1
    c7247     Obj       48
    c7247     r724      1
    c7248     Obj       49
    c7248     r724      1
    c7249     Obj       50
    c7249     r724      1
    c7250     Obj       51
    c7250     r724      1
    c7250     r725      1
    c7251     Obj       52
    c7251     r724      1
    c7251     r725      1
    c7252     Obj       53
    c7252     r724      1
    c7252     r725      1
    c7253     Obj       54
    c7253     r724      1
    c7253     r725      1
    c7254     Obj       55
    c7254     r724      1
    c7254     r725      1
    c7255     Obj       56
    c7255     r725      1
    c7256     Obj       57
    c7256     r725      1
    c7257     Obj       58
    c7257     r725      1
    c7258     Obj       59
    c7258     r725      1
    c7259     Obj       60
    c7259     r725      1
    c7260     Obj       61
    c7260     r725      1
    c7260     r726      1
    c7261     Obj       62
    c7261     r725      1
    c7261     r726      1
    c7262     Obj       63
    c7262     r725      1
    c7262     r726      1
    c7263     Obj       64
    c7263     r725      1
    c7263     r726      1
    c7264     Obj       65
    c7264     r725      1
    c7264     r726      1
    c7265     Obj       66
    c7265     r726      1
    c7266     Obj       67
    c7266     r726      1
    c7267     Obj       68
    c7267     r726      1
    c7268     Obj       69
    c7268     r726      1
    c7269     Obj       70
    c7269     r726      1
    c7270     Obj       71
    c7270     r726      1
    c7270     r727      1
    c7271     Obj       72
    c7271     r726      1
    c7271     r727      1
    c7272     Obj       73
    c7272     r726      1
    c7272     r727      1
    c7273     Obj       74
    c7273     r726      1
    c7273     r727      1
    c7274     Obj       75
    c7274     r726      1
    c7274     r727      1
    c7275     Obj       76
    c7275     r727      1
    c7276     Obj       77
    c7276     r727      1
    c7277     Obj       78
    c7277     r727      1
    c7278     Obj       79
    c7278     r727      1
    c7279     Obj       80
    c7279     r727      1
    c7280     Obj       81
    c7280     r727      1
    c7280     r728      1
    c7281     Obj       82
    c7281     r727      1
    c7281     r728      1
    c7282     Obj       83
    c7282     r727      1
    c7282     r728      1
    c7283     Obj       84
    c7283     r727      1
    c7283     r728      1
    c7284     Obj       85
    c7284     r727      1
    c7284     r728      1
    c7285     Obj       86
    c7285     r728      1
    c7286     Obj       87
    c7286     r728      1
    c7287     Obj       88
    c7287     r728      1
    c7288     Obj       89
    c7288     r728      1
    c7289     Obj       90
    c7289     r728      1
    c7290     Obj       91
    c7290     r728      1
    c7290     r729      1
    c7291     Obj       92
    c7291     r728      1
    c7291     r729      1
    c7292     Obj       93
    c7292     r728      1
    c7292     r729      1
    c7293     Obj       94
    c7293     r728      1
    c7293     r729      1
    c7294     Obj       95
    c7294     r728      1
    c7294     r729      1
    c7295     Obj       96
    c7295     r729      1
    c7296     Obj       97
    c7296     r729      1
    c7297     Obj       98
    c7297     r729      1
    c7298     Obj       99
    c7298     r729      1
    c7299     Obj       100
    c7299     r729      1
    c7300     Obj       1
    c7300     r729      1
    c7300     r730      1
    c7301     Obj       2
    c7301     r729      1
    c7301     r730      1
    c7302     Obj       3
    c7302     r729      1
    c7302     r730      1
    c7303     Obj       4
    c7303     r729      1
    c7303     r730      1
    c7304     Obj       5
    c7304     r729      1
    c7304     r730      1
    c7305     Obj       6
    c7305     r730      1
    c7306     Obj       7
    c7306     r730      1
    c7307     Obj       8
    c7307     r730      1
    c7308     Obj       9
    c7308     r730      1
    c7309     Obj       10
    c7309     r730      1
    c7310     Obj       11
    c7310     r730      1
    c7310     r731      1
    c7311     Obj       12
    c7311     r730      1
    c7311     r731      1
    c7312     Obj       13
    c7312     r730      1
    c7312     r731      1
    c7313     Obj       14
    c7313     r730      1
    c7313     r731      1
    c7314     Obj       15
    c7314     r730      1
    c7314     r731      1
    c7315     Obj       16
    c7315     r731      1
    c7316     Obj       17
    c7316     r731      1
    c7317     Obj       18
    c7317     r731      1
    c7318     Obj       19
    c7318     r731      1
    c7319     Obj       20
    c7319     r731      1
    c7320     Obj       21
    c7320     r731      1
    c7320     r732      1
    c7321     Obj       22
    c7321     r731      1
    c7321     r732      1
    c7322     Obj       23
    c7322     r731      1
    c7322     r732      1
    c7323     Obj       24
    c7323     r731      1
    c7323     r732      1
    c7324     Obj       25
    c7324     r731      1
    c7324     r732      1
    c7325     Obj       26
    c7325     r732      1
    c7326     Obj       27
    c7326     r732      1
    c7327     Obj       28
    c7327     r732      1
    c7328     Obj       29
    c7328     r732      1
    c7329     Obj       30
    c7329     r732      1
    c7330     Obj       31
    c7330     r732      1
    c7330     r733      1
    c7331     Obj       32
    c7331     r732      1
    c7331     r733      1
    c7332     Obj       33
    c7332     r732      1
    c7332     r733      1
    c7333     Obj       34
    c7333     r732      1
    c7333     r733      1
    c7334     Obj       35
    c7334     r732      1
    c7334     r733      1
    c7335     Obj       36
    c7335     r733      1
    c7336     Obj       37
    c7336     r733      1
    c7337     Obj       38
    c7337     r733      1
    c7338     Obj       39
    c7338     r733      1
    c7339     Obj       40
    c7339     r733      1
    c7340     Obj       41
    c7340     r733      1
    c7340     r734      1
    c7341     Obj       42
    c7341     r733      1
    c7341     r734      1
    c7342     Obj       43
    c7342     r733      1
    c7342     r734      1
    c7343     Obj       44
    c7343     r733      1
    c7343     r734      1
    c7344     Obj       45
    c7344     r733      1
    c7344     r734      1
    c7345     Obj       46
    c7345     r734      1
    c7346     Obj       47
    c7346     r734      1
    c7347     Obj       48
    c7347     r734      1
    c7348     Obj       49
    c7348     r734      1
    c7349     Obj       50
    c7349     r734      1
    c7350     Obj       51
    c7350     r734      1
    c7350     r735      1
    c7351     Obj       52
    c7351     r734      1
    c7351     r735      1
    c7352     Obj       53
    c7352     r734      1
    c7352     r735      1
    c7353     Obj       54
    c7353     r734      1
    c7353     r735      1
    c7354     Obj       55
    c7354     r734      1
    c7354     r735      1
    c7355     Obj       56
    c7355     r735      1
    c7356     Obj       57
    c7356     r735      1
    c7357     Obj       58
    c7357     r735      1
    c7358     Obj       59
    c7358     r735      1
    c7359     Obj       60
    c7359     r735      1
    c7360     Obj       61
    c7360     r735      1
    c7360     r736      1
    c7361     Obj       62
    c7361     r735      1
    c7361     r736      1
    c7362     Obj       63
    c7362     r735      1
    c7362     r736      1
    c7363     Obj       64
    c7363     r735      1
    c7363     r736      1
    c7364     Obj       65
    c7364     r735      1
    c7364     r736      1
    c7365     Obj       66
    c7365     r736      1
    c7366     Obj       67
    c7366     r736      1
    c7367     Obj       68
    c7367     r736      1
    c7368     Obj       69
    c7368     r736      1
    c7369     Obj       70
    c7369     r736      1
    c7370     Obj       71
    c7370     r736      1
    c7370     r737      1
    c7371     Obj       72
    c7371     r736      1
    c7371     r737      1
    c7372     Obj       73
    c7372     r736      1
    c7372     r737      1
    c7373     Obj       74
    c7373     r736      1
    c7373     r737      1
    c7374     Obj       75
    c7374     r736      1
    c7374     r737      1
    c7375     Obj       76
    c7375     r737      1
    c7376     Obj       77
    c7376     r737      1
    c7377     Obj       78
    c7377     r737      1
    c7378     Obj       79
    c7378     r737      1
    c7379     Obj       80
    c7379     r737      1
    c7380     Obj       81
    c7380     r737      1
    c7380     r738      1
    c7381     Obj       82
    c7381     r737      1
    c7381     r738      1
    c7382     Obj       83
    c7382     r737      1
    c7382     r738      1
    c7383     Obj       84
    c7383     r737      1
    c7383     r738      1
    c7384     Obj       85
    c7384     r737      1
    c7384     r738      1
    c7385     Obj       86
    c7385     r738      1
    c7386     Obj       87
    c7386     r738      1
    c7387     Obj       88
    c7387     r738      1
    c7388     Obj       89
    c7388     r738      1
    c7389     Obj       90
    c7389     r738      1
    c7390     Obj       91
    c7390     r738      1
    c7390     r739      1
    c7391     Obj       92
    c7391     r738      1
    c7391     r739      1
    c7392     Obj       93
    c7392     r738      1
    c7392     r739      1
    c7393     Obj       94
    c7393     r738      1
    c7393     r739      1
    c7394     Obj       95
    c7394     r738      1
    c7394     r739      1
    c7395     Obj       96
    c7395     r739      1
    c7396     Obj       97
    c7396     r739      1
    c7397     Obj       98
    c7397     r739      1
    c7398     Obj       99
    c7398     r739      1
    c7399     Obj       100
    c7399     r739      1
    c7400     Obj       1
    c7400     r739      1
    c7400     r740      1
    c7401     Obj       2
    c7401     r739      1
    c7401     r740      1
    c7402     Obj       3
    c7402     r739      1
    c7402     r740      1
    c7403     Obj       4
    c7403     r739      1
    c7403     r740      1
    c7404     Obj       5
    c7404     r739      1
    c7404     r740      1
    c7405     Obj       6
    c7405     r740      1
    c7406     Obj       7
    c7406     r740      1
    c7407     Obj       8
    c7407     r740      1
    c7408     Obj       9
    c7408     r740      1
    c7409     Obj       10
    c7409     r740      1
    c7410     Obj       11
    c7410     r740      1
    c7410     r741      1
    c7411     Obj       12
    c7411     r740      1
    c7411     r741      1
    c7412     Obj       13
    c7412     r740      1
    c7412     r741      1
    c7413     Obj       14
    c7413     r740      1
    c7413     r741      1
    c7414     Obj       15
    c7414     r740      1
    c7414     r741      1
    c7415     Obj       16
    c7415     r741      1
    c7416     Obj       17
    c7416     r741      1
    c7417     Obj       18
    c7417     r741      1
    c7418     Obj       19
    c7418     r741      1
    c7419     Obj       20
    c7419     r741      1
    c7420     Obj       21
    c7420     r741      1
    c7420     r742      1
    c7421     Obj       22
    c7421     r741      1
    c7421     r742      1
    c7422     Obj       23
    c7422     r741      1
    c7422     r742      1
    c7423     Obj       24
    c7423     r741      1
    c7423     r742      1
    c7424     Obj       25
    c7424     r741      1
    c7424     r742      1
    c7425     Obj       26
    c7425     r742      1
    c7426     Obj       27
    c7426     r742      1
    c7427     Obj       28
    c7427     r742      1
    c7428     Obj       29
    c7428     r742      1
    c7429     Obj       30
    c7429     r742      1
    c7430     Obj       31
    c7430     r742      1
    c7430     r743      1
    c7431     Obj       32
    c7431     r742      1
    c7431     r743      1
    c7432     Obj       33
    c7432     r742      1
    c7432     r743      1
    c7433     Obj       34
    c7433     r742      1
    c7433     r743      1
    c7434     Obj       35
    c7434     r742      1
    c7434     r743      1
    c7435     Obj       36
    c7435     r743      1
    c7436     Obj       37
    c7436     r743      1
    c7437     Obj       38
    c7437     r743      1
    c7438     Obj       39
    c7438     r743      1
    c7439     Obj       40
    c7439     r743      1
    c7440     Obj       41
    c7440     r743      1
    c7440     r744      1
    c7441     Obj       42
    c7441     r743      1
    c7441     r744      1
    c7442     Obj       43
    c7442     r743      1
    c7442     r744      1
    c7443     Obj       44
    c7443     r743      1
    c7443     r744      1
    c7444     Obj       45
    c7444     r743      1
    c7444     r744      1
    c7445     Obj       46
    c7445     r744      1
    c7446     Obj       47
    c7446     r744      1
    c7447     Obj       48
    c7447     r744      1
    c7448     Obj       49
    c7448     r744      1
    c7449     Obj       50
    c7449     r744      1
    c7450     Obj       51
    c7450     r744      1
    c7450     r745      1
    c7451     Obj       52
    c7451     r744      1
    c7451     r745      1
    c7452     Obj       53
    c7452     r744      1
    c7452     r745      1
    c7453     Obj       54
    c7453     r744      1
    c7453     r745      1
    c7454     Obj       55
    c7454     r744      1
    c7454     r745      1
    c7455     Obj       56
    c7455     r745      1
    c7456     Obj       57
    c7456     r745      1
    c7457     Obj       58
    c7457     r745      1
    c7458     Obj       59
    c7458     r745      1
    c7459     Obj       60
    c7459     r745      1
    c7460     Obj       61
    c7460     r745      1
    c7460     r746      1
    c7461     Obj       62
    c7461     r745      1
    c7461     r746      1
    c7462     Obj       63
    c7462     r745      1
    c7462     r746      1
    c7463     Obj       64
    c7463     r745      1
    c7463     r746      1
    c7464     Obj       65
    c7464     r745      1
    c7464     r746      1
    c7465     Obj       66
    c7465     r746      1
    c7466     Obj       67
    c7466     r746      1
    c7467     Obj       68
    c7467     r746      1
    c7468     Obj       69
    c7468     r746      1
    c7469     Obj       70
    c7469     r746      1
    c7470     Obj       71
    c7470     r746      1
    c7470     r747      1
    c7471     Obj       72
    c7471     r746      1
    c7471     r747      1
    c7472     Obj       73
    c7472     r746      1
    c7472     r747      1
    c7473     Obj       74
    c7473     r746      1
    c7473     r747      1
    c7474     Obj       75
    c7474     r746      1
    c7474     r747      1
    c7475     Obj       76
    c7475     r747      1
    c7476     Obj       77
    c7476     r747      1
    c7477     Obj       78
    c7477     r747      1
    c7478     Obj       79
    c7478     r747      1
    c7479     Obj       80
    c7479     r747      1
    c7480     Obj       81
    c7480     r747      1
    c7480     r748      1
    c7481     Obj       82
    c7481     r747      1
    c7481     r748      1
    c7482     Obj       83
    c7482     r747      1
    c7482     r748      1
    c7483     Obj       84
    c7483     r747      1
    c7483     r748      1
    c7484     Obj       85
    c7484     r747      1
    c7484     r748      1
    c7485     Obj       86
    c7485     r748      1
    c7486     Obj       87
    c7486     r748      1
    c7487     Obj       88
    c7487     r748      1
    c7488     Obj       89
    c7488     r748      1
    c7489     Obj       90
    c7489     r748      1
    c7490     Obj       91
    c7490     r748      1
    c7490     r749      1
    c7491     Obj       92
    c7491     r748      1
    c7491     r749      1
    c7492     Obj       93
    c7492     r748      1
    c7492     r749      1
    c7493     Obj       94
    c7493     r748      1
    c7493     r749      1
    c7494     Obj       95
    c7494     r748      1
    c7494     r749      1
    c7495     Obj       96
    c7495     r749      1
    c7496     Obj       97
    c7496     r749      1
    c7497     Obj       98
    c7497     r749      1
    c7498     Obj       99
    c7498     r749      1
    c7499     Obj       100
    c7499     r749      1
    c7500     Obj       1
    c7500     r749      1
    c7500     r750      1
    c7501     Obj       2
    c7501     r749      1
    c7501     r750      1
    c7502     Obj       3
    c7502     r749      1
    c7502     r750      1
    c7503     Obj       4
    c7503     r749      1
    c7503     r750      1
    c7504     Obj       5
    c7504     r749      1
    c7504     r750      1
    c7505     Obj       6
    c7505     r750      1
    c7506     Obj       7
    c7506     r750      1
    c7507     Obj       8
    c7507     r750      1
    c7508     Obj       9
    c7508     r750      1
    c7509     Obj       10
    c7509     r750      1
    c7510     Obj       11
    c7510     r750      1
    c7510     r751      1
    c7511     Obj       12
    c7511     r750      1
    c7511     r751      1
    c7512     Obj       13
    c7512     r750      1
    c7512     r751      1
    c7513     Obj       14
    c7513     r750      1
    c7513     r751      1
    c7514     Obj       15
    c7514     r750      1
    c7514     r751      1
    c7515     Obj       16
    c7515     r751      1
    c7516     Obj       17
    c7516     r751      1
    c7517     Obj       18
    c7517     r751      1
    c7518     Obj       19
    c7518     r751      1
    c7519     Obj       20
    c7519     r751      1
    c7520     Obj       21
    c7520     r751      1
    c7520     r752      1
    c7521     Obj       22
    c7521     r751      1
    c7521     r752      1
    c7522     Obj       23
    c7522     r751      1
    c7522     r752      1
    c7523     Obj       24
    c7523     r751      1
    c7523     r752      1
    c7524     Obj       25
    c7524     r751      1
    c7524     r752      1
    c7525     Obj       26
    c7525     r752      1
    c7526     Obj       27
    c7526     r752      1
    c7527     Obj       28
    c7527     r752      1
    c7528     Obj       29
    c7528     r752      1
    c7529     Obj       30
    c7529     r752      1
    c7530     Obj       31
    c7530     r752      1
    c7530     r753      1
    c7531     Obj       32
    c7531     r752      1
    c7531     r753      1
    c7532     Obj       33
    c7532     r752      1
    c7532     r753      1
    c7533     Obj       34
    c7533     r752      1
    c7533     r753      1
    c7534     Obj       35
    c7534     r752      1
    c7534     r753      1
    c7535     Obj       36
    c7535     r753      1
    c7536     Obj       37
    c7536     r753      1
    c7537     Obj       38
    c7537     r753      1
    c7538     Obj       39
    c7538     r753      1
    c7539     Obj       40
    c7539     r753      1
    c7540     Obj       41
    c7540     r753      1
    c7540     r754      1
    c7541     Obj       42
    c7541     r753      1
    c7541     r754      1
    c7542     Obj       43
    c7542     r753      1
    c7542     r754      1
    c7543     Obj       44
    c7543     r753      1
    c7543     r754      1
    c7544     Obj       45
    c7544     r753      1
    c7544     r754      1
    c7545     Obj       46
    c7545     r754      1
    c7546     Obj       47
    c7546     r754      1
    c7547     Obj       48
    c7547     r754      1
    c7548     Obj       49
    c7548     r754      1
    c7549     Obj       50
    c7549     r754      1
    c7550     Obj       51
    c7550     r754      1
    c7550     r755      1
    c7551     Obj       52
    c7551     r754      1
    c7551     r755      1
    c7552     Obj       53
    c7552     r754      1
    c7552     r755      1
    c7553     Obj       54
    c7553     r754      1
    c7553     r755      1
    c7554     Obj       55
    c7554     r754      1
    c7554     r755      1
    c7555     Obj       56
    c7555     r755      1
    c7556     Obj       57
    c7556     r755      1
    c7557     Obj       58
    c7557     r755      1
    c7558     Obj       59
    c7558     r755      1
    c7559     Obj       60
    c7559     r755      1
    c7560     Obj       61
    c7560     r755      1
    c7560     r756      1
    c7561     Obj       62
    c7561     r755      1
    c7561     r756      1
    c7562     Obj       63
    c7562     r755      1
    c7562     r756      1
    c7563     Obj       64
    c7563     r755      1
    c7563     r756      1
    c7564     Obj       65
    c7564     r755      1
    c7564     r756      1
    c7565     Obj       66
    c7565     r756      1
    c7566     Obj       67
    c7566     r756      1
    c7567     Obj       68
    c7567     r756      1
    c7568     Obj       69
    c7568     r756      1
    c7569     Obj       70
    c7569     r756      1
    c7570     Obj       71
    c7570     r756      1
    c7570     r757      1
    c7571     Obj       72
    c7571     r756      1
    c7571     r757      1
    c7572     Obj       73
    c7572     r756      1
    c7572     r757      1
    c7573     Obj       74
    c7573     r756      1
    c7573     r757      1
    c7574     Obj       75
    c7574     r756      1
    c7574     r757      1
    c7575     Obj       76
    c7575     r757      1
    c7576     Obj       77
    c7576     r757      1
    c7577     Obj       78
    c7577     r757      1
    c7578     Obj       79
    c7578     r757      1
    c7579     Obj       80
    c7579     r757      1
    c7580     Obj       81
    c7580     r757      1
    c7580     r758      1
    c7581     Obj       82
    c7581     r757      1
    c7581     r758      1
    c7582     Obj       83
    c7582     r757      1
    c7582     r758      1
    c7583     Obj       84
    c7583     r757      1
    c7583     r758      1
    c7584     Obj       85
    c7584     r757      1
    c7584     r758      1
    c7585     Obj       86
    c7585     r758      1
    c7586     Obj       87
    c7586     r758      1
    c7587     Obj       88
    c7587     r758      1
    c7588     Obj       89
    c7588     r758      1
    c7589     Obj       90
    c7589     r758      1
    c7590     Obj       91
    c7590     r758      1
    c7590     r759      1
    c7591     Obj       92
    c7591     r758      1
    c7591     r759      1
    c7592     Obj       93
    c7592     r758      1
    c7592     r759      1
    c7593     Obj       94
    c7593     r758      1
    c7593     r759      1
    c7594     Obj       95
    c7594     r758      1
    c7594     r759      1
    c7595     Obj       96
    c7595     r759      1
    c7596     Obj       97
    c7596     r759      1
    c7597     Obj       98
    c7597     r759      1
    c7598     Obj       99
    c7598     r759      1
    c7599     Obj       100
    c7599     r759      1
    c7600     Obj       1
    c7600     r759      1
    c7600     r760      1
    c7601     Obj       2
    c7601     r759      1
    c7601     r760      1
    c7602     Obj       3
    c7602     r759      1
    c7602     r760      1
    c7603     Obj       4
    c7603     r759      1
    c7603     r760      1
    c7604     Obj       5
    c7604     r759      1
    c7604     r760      1
    c7605     Obj       6
    c7605     r760      1
    c7606     Obj       7
    c7606     r760      1
    c7607     Obj       8
    c7607     r760      1
    c7608     Obj       9
    c7608     r760      1
    c7609     Obj       10
    c7609     r760      1
    c7610     Obj       11
    c7610     r760      1
    c7610     r761      1
    c7611     Obj       12
    c7611     r760      1
    c7611     r761      1
    c7612     Obj       13
    c7612     r760      1
    c7612     r761      1
    c7613     Obj       14
    c7613     r760      1
    c7613     r761      1
    c7614     Obj       15
    c7614     r760      1
    c7614     r761      1
    c7615     Obj       16
    c7615     r761      1
    c7616     Obj       17
    c7616     r761      1
    c7617     Obj       18
    c7617     r761      1
    c7618     Obj       19
    c7618     r761      1
    c7619     Obj       20
    c7619     r761      1
    c7620     Obj       21
    c7620     r761      1
    c7620     r762      1
    c7621     Obj       22
    c7621     r761      1
    c7621     r762      1
    c7622     Obj       23
    c7622     r761      1
    c7622     r762      1
    c7623     Obj       24
    c7623     r761      1
    c7623     r762      1
    c7624     Obj       25
    c7624     r761      1
    c7624     r762      1
    c7625     Obj       26
    c7625     r762      1
    c7626     Obj       27
    c7626     r762      1
    c7627     Obj       28
    c7627     r762      1
    c7628     Obj       29
    c7628     r762      1
    c7629     Obj       30
    c7629     r762      1
    c7630     Obj       31
    c7630     r762      1
    c7630     r763      1
    c7631     Obj       32
    c7631     r762      1
    c7631     r763      1
    c7632     Obj       33
    c7632     r762      1
    c7632     r763      1
    c7633     Obj       34
    c7633     r762      1
    c7633     r763      1
    c7634     Obj       35
    c7634     r762      1
    c7634     r763      1
    c7635     Obj       36
    c7635     r763      1
    c7636     Obj       37
    c7636     r763      1
    c7637     Obj       38
    c7637     r763      1
    c7638     Obj       39
    c7638     r763      1
    c7639     Obj       40
    c7639     r763      1
    c7640     Obj       41
    c7640     r763      1
    c7640     r764      1
    c7641     Obj       42
    c7641     r763      1
    c7641     r764      1
    c7642     Obj       43
    c7642     r763      1
    c7642     r764      1
    c7643     Obj       44
    c7643     r763      1
    c7643     r764      1
    c7644     Obj       45
    c7644     r763      1
    c7644     r764      1
    c7645     Obj       46
    c7645     r764      1
    c7646     Obj       47
    c7646     r764      1
    c7647     Obj       48
    c7647     r764      1
    c7648     Obj       49
    c7648     r764      1
    c7649     Obj       50
    c7649     r764      1
    c7650     Obj       51
    c7650     r764      1
    c7650     r765      1
    c7651     Obj       52
    c7651     r764      1
    c7651     r765      1
    c7652     Obj       53
    c7652     r764      1
    c7652     r765      1
    c7653     Obj       54
    c7653     r764      1
    c7653     r765      1
    c7654     Obj       55
    c7654     r764      1
    c7654     r765      1
    c7655     Obj       56
    c7655     r765      1
    c7656     Obj       57
    c7656     r765      1
    c7657     Obj       58
    c7657     r765      1
    c7658     Obj       59
    c7658     r765      1
    c7659     Obj       60
    c7659     r765      1
    c7660     Obj       61
    c7660     r765      1
    c7660     r766      1
    c7661     Obj       62
    c7661     r765      1
    c7661     r766      1
    c7662     Obj       63
    c7662     r765      1
    c7662     r766      1
    c7663     Obj       64
    c7663     r765      1
    c7663     r766      1
    c7664     Obj       65
    c7664     r765      1
    c7664     r766      1
    c7665     Obj       66
    c7665     r766      1
    c7666     Obj       67
    c7666     r766      1
    c7667     Obj       68
    c7667     r766      1
    c7668     Obj       69
    c7668     r766      1
    c7669     Obj       70
    c7669     r766      1
    c7670     Obj       71
    c7670     r766      1
    c7670     r767      1
    c7671     Obj       72
    c7671     r766      1
    c7671     r767      1
    c7672     Obj       73
    c7672     r766      1
    c7672     r767      1
    c7673     Obj       74
    c7673     r766      1
    c7673     r767      1
    c7674     Obj       75
    c7674     r766      1
    c7674     r767      1
    c7675     Obj       76
    c7675     r767      1
    c7676     Obj       77
    c7676     r767      1
    c7677     Obj       78
    c7677     r767      1
    c7678     Obj       79
    c7678     r767      1
    c7679     Obj       80
    c7679     r767      1
    c7680     Obj       81
    c7680     r767      1
    c7680     r768      1
    c7681     Obj       82
    c7681     r767      1
    c7681     r768      1
    c7682     Obj       83
    c7682     r767      1
    c7682     r768      1
    c7683     Obj       84
    c7683     r767      1
    c7683     r768      1
    c7684     Obj       85
    c7684     r767      1
    c7684     r768      1
    c7685     Obj       86
    c7685     r768      1
    c7686     Obj       87
    c7686     r768      1
    c7687     Obj       88
    c7687     r768      1
    c7688     Obj       89
    c7688     r768      1
    c7689     Obj       90
    c7689     r768      1
    c7690     Obj       91
    c7690     r768      1
    c7690     r769      1
    c7691     Obj       92
    c7691     r768      1
    c7691     r769      1
    c7692     Obj       93
    c7692     r768      1
    c7692     r769      1
    c7693     Obj       94
    c7693     r768      1
    c7693     r769      1
    c7694     Obj       95
    c7694     r768      1
    c7694     r769      1
    c7695     Obj       96
    c7695     r769      1
    c7696     Obj       97
    c7696     r769      1
    c7697     Obj       98
    c7697     r769      1
    c7698     Obj       99
    c7698     r769      1
    c7699     Obj       100
    c7699     r769      1
    c7700     Obj       1
    c7700     r769      1
    c7700     r770      1
    c7701     Obj       2
    c7701     r769      1
    c7701     r770      1
    c7702     Obj       3
    c7702     r769      1
    c7702     r770      1
    c7703     Obj       4
    c7703     r769      1
    c7703     r770      1
    c7704     Obj       5
    c7704     r769      1
    c7704     r770      1
    c7705     Obj       6
    c7705     r770      1
    c7706     Obj       7
    c7706     r770      1
    c7707     Obj       8
    c7707     r770      1
    c7708     Obj       9
    c7708     r770      1
    c7709     Obj       10
    c7709     r770      1
    c7710     Obj       11
    c7710     r770      1
    c7710     r771      1
    c7711     Obj       12
    c7711     r770      1
    c7711     r771      1
    c7712     Obj       13
    c7712     r770      1
    c7712     r771      1
    c7713     Obj       14
    c7713     r770      1
    c7713     r771      1
    c7714     Obj       15
    c7714     r770      1
    c7714     r771      1
    c7715     Obj       16
    c7715     r771      1
    c7716     Obj       17
    c7716     r771      1
    c7717     Obj       18
    c7717     r771      1
    c7718     Obj       19
    c7718     r771      1
    c7719     Obj       20
    c7719     r771      1
    c7720     Obj       21
    c7720     r771      1
    c7720     r772      1
    c7721     Obj       22
    c7721     r771      1
    c7721     r772      1
    c7722     Obj       23
    c7722     r771      1
    c7722     r772      1
    c7723     Obj       24
    c7723     r771      1
    c7723     r772      1
    c7724     Obj       25
    c7724     r771      1
    c7724     r772      1
    c7725     Obj       26
    c7725     r772      1
    c7726     Obj       27
    c7726     r772      1
    c7727     Obj       28
    c7727     r772      1
    c7728     Obj       29
    c7728     r772      1
    c7729     Obj       30
    c7729     r772      1
    c7730     Obj       31
    c7730     r772      1
    c7730     r773      1
    c7731     Obj       32
    c7731     r772      1
    c7731     r773      1
    c7732     Obj       33
    c7732     r772      1
    c7732     r773      1
    c7733     Obj       34
    c7733     r772      1
    c7733     r773      1
    c7734     Obj       35
    c7734     r772      1
    c7734     r773      1
    c7735     Obj       36
    c7735     r773      1
    c7736     Obj       37
    c7736     r773      1
    c7737     Obj       38
    c7737     r773      1
    c7738     Obj       39
    c7738     r773      1
    c7739     Obj       40
    c7739     r773      1
    c7740     Obj       41
    c7740     r773      1
    c7740     r774      1
    c7741     Obj       42
    c7741     r773      1
    c7741     r774      1
    c7742     Obj       43
    c7742     r773      1
    c7742     r774      1
    c7743     Obj       44
    c7743     r773      1
    c7743     r774      1
    c7744     Obj       45
    c7744     r773      1
    c7744     r774      1
    c7745     Obj       46
    c7745     r774      1
    c7746     Obj       47
    c7746     r774      1
    c7747     Obj       48
    c7747     r774      1
    c7748     Obj       49
    c7748     r774      1
    c7749     Obj       50
    c7749     r774      1
    c7750     Obj       51
    c7750     r774      1
    c7750     r775      1
    c7751     Obj       52
    c7751     r774      1
    c7751     r775      1
    c7752     Obj       53
    c7752     r774      1
    c7752     r775      1
    c7753     Obj       54
    c7753     r774      1
    c7753     r775      1
    c7754     Obj       55
    c7754     r774      1
    c7754     r775      1
    c7755     Obj       56
    c7755     r775      1
    c7756     Obj       57
    c7756     r775      1
    c7757     Obj       58
    c7757     r775      1
    c7758     Obj       59
    c7758     r775      1
    c7759     Obj       60
    c7759     r775      1
    c7760     Obj       61
    c7760     r775      1
    c7760     r776      1
    c7761     Obj       62
    c7761     r775      1
    c7761     r776      1
    c7762     Obj       63
    c7762     r775      1
    c7762     r776      1
    c7763     Obj       64
    c7763     r775      1
    c7763     r776      1
    c7764     Obj       65
    c7764     r775      1
    c7764     r776      1
    c7765     Obj       66
    c7765     r776      1
    c7766     Obj       67
    c7766     r776      1
    c7767     Obj       68
    c7767     r776      1
    c7768     Obj       69
    c7768     r776      1
    c7769     Obj       70
    c7769     r776      1
    c7770     Obj       71
    c7770     r776      1
    c7770     r777      1
    c7771     Obj       72
    c7771     r776      1
    c7771     r777      1
    c7772     Obj       73
    c7772     r776      1
    c7772     r777      1
    c7773     Obj       74
    c7773     r776      1
    c7773     r777      1
    c7774     Obj       75
    c7774     r776      1
    c7774     r777      1
    c7775     Obj       76
    c7775     r777      1
    c7776     Obj       77
    c7776     r777      1
    c7777     Obj       78
    c7777     r777      1
    c7778     Obj       79
    c7778     r777      1
    c7779     Obj       80
    c7779     r777      1
    c7780     Obj       81
    c7780     r777      1
    c7780     r778      1
    c7781     Obj       82
    c7781     r777      1
    c7781     r778      1
    c7782     Obj       83
    c7782     r777      1
    c7782     r778      1
    c7783     Obj       84
    c7783     r777      1
    c7783     r778      1
    c7784     Obj       85
    c7784     r777      1
    c7784     r778      1
    c7785     Obj       86
    c7785     r778      1
    c7786     Obj       87
    c7786     r778      1
    c7787     Obj       88
    c7787     r778      1
    c7788     Obj       89
    c7788     r778      1
    c7789     Obj       90
    c7789     r778      1
    c7790     Obj       91
    c7790     r778      1
    c7790     r779      1
    c7791     Obj       92
    c7791     r778      1
    c7791     r779      1
    c7792     Obj       93
    c7792     r778      1
    c7792     r779      1
    c7793     Obj       94
    c7793     r778      1
    c7793     r779      1
    c7794     Obj       95
    c7794     r778      1
    c7794     r779      1
    c7795     Obj       96
    c7795     r779      1
    c7796     Obj       97
    c7796     r779      1
    c7797     Obj       98
    c7797     r779      1
    c7798     Obj       99
    c7798     r779      1
    c7799     Obj       100
    c7799     r779      1
    c7800     Obj       1
    c7800     r779      1
    c7800     r780      1
    c7801     Obj       2
    c7801     r779      1
    c7801     r780      1
    c7802     Obj       3
    c7802     r779      1
    c7802     r780      1
    c7803     Obj       4
    c7803     r779      1
    c7803     r780      1
    c7804     Obj       5
    c7804     r779      1
    c7804     r780      1
    c7805     Obj       6
    c7805     r780      1
    c7806     Obj       7
    c7806     r780      1
    c7807     Obj       8
    c7807     r780      1
    c7808     Obj       9
    c7808     r780      1
    c7809     Obj       10
    c7809     r780      1
    c7810     Obj       11
    c7810     r780      1
    c7810     r781      1
    c7811     Obj       12
    c7811     r780      1
    c7811     r781      1
    c7812     Obj       13
    c7812     r780      1
    c7812     r781      1
    c7813     Obj       14
    c7813     r780      1
    c7813     r781      1
    c7814     Obj       15
    c7814     r780      1
    c7814     r781      1
    c7815     Obj       16
    c7815     r781      1
    c7816     Obj       17
    c7816     r781      1
    c7817     Obj       18
    c7817     r781      1
    c7818     Obj       19
    c7818     r781      1
    c7819     Obj       20
    c7819     r781      1
    c7820     Obj       21
    c7820     r781      1
    c7820     r782      1
    c7821     Obj       22
    c7821     r781      1
    c7821     r782      1
    c7822     Obj       23
    c7822     r781      1
    c7822     r782      1
    c7823     Obj       24
    c7823     r781      1
    c7823     r782      1
    c7824     Obj       25
    c7824     r781      1
    c7824     r782      1
    c7825     Obj       26
    c7825     r782      1
    c7826     Obj       27
    c7826     r782      1
    c7827     Obj       28
    c7827     r782      1
    c7828     Obj       29
    c7828     r782      1
    c7829     Obj       30
    c7829     r782      1
    c7830     Obj       31
    c7830     r782      1
    c7830     r783      1
    c7831     Obj       32
    c7831     r782      1
    c7831     r783      1
    c7832     Obj       33
    c7832     r782      1
    c7832     r783      1
    c7833     Obj       34
    c7833     r782      1
    c7833     r783      1
    c7834     Obj       35
    c7834     r782      1
    c7834     r783      1
    c7835     Obj       36
    c7835     r783      1
    c7836     Obj       37
    c7836     r783      1
    c7837     Obj       38
    c7837     r783      1
    c7838     Obj       39
    c7838     r783      1
    c7839     Obj       40
    c7839     r783      1
    c7840     Obj       41
    c7840     r783      1
    c7840     r784      1
    c7841     Obj       42
    c7841     r783      1
    c7841     r784      1
    c7842     Obj       43
    c7842     r783      1
    c7842     r784      1
    c7843     Obj       44
    c7843     r783      1
    c7843     r784      1
    c7844     Obj       45
    c7844     r783      1
    c7844     r784      1
    c7845     Obj       46
    c7845     r784      1
    c7846     Obj       47
    c7846     r784      1
    c7847     Obj       48
    c7847     r784      1
    c7848     Obj       49
    c7848     r784      1
    c7849     Obj       50
    c7849     r784      1
    c7850     Obj       51
    c7850     r784      1
    c7850     r785      1
    c7851     Obj       52
    c7851     r784      1
    c7851     r785      1
    c7852     Obj       53
    c7852     r784      1
    c7852     r785      1
    c7853     Obj       54
    c7853     r784      1
    c7853     r785      1
    c7854     Obj       55
    c7854     r784      1
    c7854     r785      1
    c7855     Obj       56
    c7855     r785      1
    c7856     Obj       57
    c7856     r785      1
    c7857     Obj       58
    c7857     r785      1
    c7858     Obj       59
    c7858     r785      1
    c7859     Obj       60
    c7859     r785      1
    c7860     Obj       61
    c7860     r785      1
    c7860     r786      1
    c7861     Obj       62
    c7861     r785      1
    c7861     r786      1
    c7862     Obj       63
    c7862     r785      1
    c7862     r786      1
    c7863     Obj       64
    c7863     r785      1
    c7863     r786      1
    c7864     Obj       65
    c7864     r785      1
    c7864     r786      1
    c7865     Obj       66
    c7865     r786      1
    c7866     Obj       67
    c7866     r786      1
    c7867     Obj       68
    c7867     r786      1
    c7868     Obj       69
    c7868     r786      1
    c7869     Obj       70
    c7869     r786      1
    c7870     Obj       71
    c7870     r786      1
    c7870     r787      1
    c7871     Obj       72
    c7871     r786      1
    c7871     r787      1
    c7872     Obj       73
    c7872     r786      1
    c7872     r787      1
    c7873     Obj       74
    c7873     r786      1
    c7873     r787      1
    c7874     Obj       75
    c7874     r786      1
    c7874     r787      1
    c7875     Obj       76
    c7875     r787      1
    c7876     Obj       77
    c7876     r787      1
    c7877     Obj       78
    c7877     r787      1
    c7878     Obj       79
    c7878     r787      1
    c7879     Obj       80
    c7879     r787      1
    c7880     Obj       81
    c7880     r787      1
    c7880     r788      1
    c7881     Obj       82
    c7881     r787      1
    c7881     r788      1
    c7882     Obj       83
    c7882     r787      1
    c7882     r788      1
    c7883     Obj       84
    c7883     r787      1
    c7883     r788      1
    c7884     Obj       85
    c7884     r787      1
    c7884     r788      1
    c7885     Obj       86
    c7885     r788      1
    c7886     Obj       87
    c7886     r788      1
    c7887     Obj       88
    c7887     r788      1
    c7888     Obj       89
    c7888     r788      1
    c7889     Obj       90
    c7889     r788      1
    c7890     Obj       91
    c7890     r788      1
    c7890     r789      1
    c7891     Obj       92
    c7891     r788      1
    c7891     r789      1
    c7892     Obj       93
    c7892     r788      1
    c7892     r789      1
    c7893     Obj       94
    c7893     r788      1
    c7893     r789      1
    c7894     Obj       95
    c7894     r788      1
    c7894     r789      1
    c7895     Obj       96
    c7895     r789      1
    c7896     Obj       97
    c7896     r789      1
    c7897     Obj       98
    c7897     r789      1
    c7898     Obj       99
    c7898     r789      1
    c7899     Obj       100
    c7899     r789      1
    c7900     Obj       1
    c7900     r789      1
    c7900     r790      1
    c7901     Obj       2
    c7901     r789      1
    c7901     r790      1
    c7902     Obj       3
    c7902     r789      1
    c7902     r790      1
    c7903     Obj       4
    c7903     r789      1
    c7903     r790      1
    c7904     Obj       5
    c7904     r789      1
    c7904     r790      1
    c7905     Obj       6
    c7905     r790      1
    c7906     Obj       7
    c7906     r790      1
    c7907     Obj       8
    c7907     r790      1
    c7908     Obj       9
    c7908     r790      1
    c7909     Obj       10
    c7909     r790      1
    c7910     Obj       11
    c7910     r790      1
    c7910     r791      1
    c7911     Obj       12
    c7911     r790      1
    c7911     r791      1
    c7912     Obj       13
    c7912     r790      1
    c7912     r791      1
    c7913     Obj       14
    c7913     r790      1
    c7913     r791      1
    c7914     Obj       15
    c7914     r790      1
    c7914     r791      1
    c7915     Obj       16
    c7915     r791      1
    c7916     Obj       17
    c7916     r791      1
    c7917     Obj       18
    c7917     r791      1
    c7918     Obj       19
    c7918     r791      1
    c7919     Obj       20
    c7919     r791      1
    c7920     Obj       21
    c7920     r791      1
    c7920     r792      1
    c7921     Obj       22
    c7921     r791      1
    c7921     r792      1
    c7922     Obj       23
    c7922     r791      1
    c7922     r792      1
    c7923     Obj       24
    c7923     r791      1
    c7923     r792      1
    c7924     Obj       25
    c7924     r791      1
    c7924     r792      1
    c7925     Obj       26
    c7925     r792      1
    c7926     Obj       27
    c7926     r792      1
    c7927     Obj       28
    c7927     r792      1
    c7928     Obj       29
    c7928     r792      1
    c7929     Obj       30
    c7929     r792      1
    c7930     Obj       31
    c7930     r792      1
    c7930     r793      1
    c7931     Obj       32
    c7931     r792      1
    c7931     r793      1
    c7932     Obj       33
    c7932     r792      1
    c7932     r793      1
    c7933     Obj       34
    c7933     r792      1
    c7933     r793      1
    c7934     Obj       35
    c7934     r792      1
    c7934     r793      1
    c7935     Obj       36
    c7935     r793      1
    c7936     Obj       37
    c7936     r793      1
    c7937     Obj       38
    c7937     r793      1
    c7938     Obj       39
    c7938     r793      1
    c7939     Obj       40
    c7939     r793      1
    c7940     Obj       41
    c7940     r793      1
    c7940     r794      1
    c7941     Obj       42
    c7941     r793      1
    c7941     r794      1
    c7942     Obj       43
    c7942     r793      1
    c7942     r794      1
    c7943     Obj       44
    c7943     r793      1
    c7943     r794      1
    c7944     Obj       45
    c7944     r793      1
    c7944     r794      1
    c7945     Obj       46
    c7945     r794      1
    c7946     Obj       47
    c7946     r794      1
    c7947     Obj       48
    c7947     r794      1
    c7948     Obj       49
    c7948     r794      1
    c7949     Obj       50
    c7949     r794      1
    c7950     Obj       51
    c7950     r794      1
    c7950     r795      1
    c7951     Obj       52
    c7951     r794      1
    c7951     r795      1
    c7952     Obj       53
    c7952     r794      1
    c7952     r795      1
    c7953     Obj       54
    c7953     r794      1
    c7953     r795      1
    c7954     Obj       55
    c7954     r794      1
    c7954     r795      1
    c7955     Obj       56
    c7955     r795      1
    c7956     Obj       57
    c7956     r795      1
    c7957     Obj       58
    c7957     r795      1
    c7958     Obj       59
    c7958     r795      1
    c7959     Obj       60
    c7959     r795      1
    c7960     Obj       61
    c7960     r795      1
    c7960     r796      1
    c7961     Obj       62
    c7961     r795      1
    c7961     r796      1
    c7962     Obj       63
    c7962     r795      1
    c7962     r796      1
    c7963     Obj       64
    c7963     r795      1
    c7963     r796      1
    c7964     Obj       65
    c7964     r795      1
    c7964     r796      1
    c7965     Obj       66
    c7965     r796      1
    c7966     Obj       67
    c7966     r796      1
    c7967     Obj       68
    c7967     r796      1
    c7968     Obj       69
    c7968     r796      1
    c7969     Obj       70
    c7969     r796      1
    c7970     Obj       71
    c7970     r796      1
    c7970     r797      1
    c7971     Obj       72
    c7971     r796      1
    c7971     r797      1
    c7972     Obj       73
    c7972     r796      1
    c7972     r797      1
    c7973     Obj       74
    c7973     r796      1
    c7973     r797      1
    c7974     Obj       75
    c7974     r796      1
    c7974     r797      1
    c7975     Obj       76
    c7975     r797      1
    c7976     Obj       77
    c7976     r797      1
    c7977     Obj       78
    c7977     r797      1
    c7978     Obj       79
    c7978     r797      1
    c7979     Obj       80
    c7979     r797      1
    c7980     Obj       81
    c7980     r797      1
    c7980     r798      1
    c7981     Obj       82
    c7981     r797      1
    c7981     r798      1
    c7982     Obj       83
    c7982     r797      1
    c7982     r798      1
    c7983     Obj       84
    c7983     r797      1
    c7983     r798      1
    c7984     Obj       85
    c7984     r797      1
    c7984     r798      1
    c7985     Obj       86
    c7985     r798      1
    c7986     Obj       87
    c7986     r798      1
    c7987     Obj       88
    c7987     r798      1
    c7988     Obj       89
    c7988     r798      1
    c7989     Obj       90
    c7989     r798      1
    c7990     Obj       91
    c7990     r798      1
    c7990     r799      1
    c7991     Obj       92
    c7991     r798      1
    c7991     r799      1
    c7992     Obj       93
    c7992     r798      1
    c7992     r799      1
    c7993     Obj       94
    c7993     r798      1
    c7993     r799      1
    c7994     Obj       95
    c7994     r798      1
    c7994     r799      1
    c7995     Obj       96
    c7995     r799      1
    c7996     Obj       97
    c7996     r799      1
    c7997     Obj       98
    c7997     r799      1
    c7998     Obj       99
    c7998     r799      1
    c7999     Obj       100
    c7999     r799      1
    c8000     Obj       1
    c8000     r799      1
    c8000     r800      1
    c8001     Obj       2
    c8001     r799      1
    c8001     r800      1
    c8002     Obj       3
    c8002     r799      1
    c8002     r800      1
    c8003     Obj       4
    c8003     r799      1
    c8003     r800      1
    c8004     Obj       5
    c8004     r799      1
    c8004     r800      1
    c8005     Obj       6
    c8005     r800      1
    c8006     Obj       7
    c8006     r800      1
    c8007     Obj       8
    c8007     r800      1
    c8008     Obj       9
    c8008     r800      1
    c8009     Obj       10
    c8009     r800      1
    c8010     Obj       11
    c8010     r800      1
    c8010     r801      1
    c8011     Obj       12
    c8011     r800      1
    c8011     r801      1
    c8012     Obj       13
    c8012     r800      1
    c8012     r801      1
    c8013     Obj       14
    c8013     r800      1
    c8013     r801      1
    c8014     Obj       15
    c8014     r800      1
    c8014     r801      1
    c8015     Obj       16
    c8015     r801      1
    c8016     Obj       17
    c8016     r801      1
    c8017     Obj       18
    c8017     r801      1
    c8018     Obj       19
    c8018     r801      1
    c8019     Obj       20
    c8019     r801      1
    c8020     Obj       21
    c8020     r801      1
    c8020     r802      1
    c8021     Obj       22
    c8021     r801      1
    c8021     r802      1
    c8022     Obj       23
    c8022     r801      1
    c8022     r802      1
    c8023     Obj       24
    c8023     r801      1
    c8023     r802      1
    c8024     Obj       25
    c8024     r801      1
    c8024     r802      1
    c8025     Obj       26
    c8025     r802      1
    c8026     Obj       27
    c8026     r802      1
    c8027     Obj       28
    c8027     r802      1
    c8028     Obj       29
    c8028     r802      1
    c8029     Obj       30
    c8029     r802      1
    c8030     Obj       31
    c8030     r802      1
    c8030     r803      1
    c8031     Obj       32
    c8031     r802      1
    c8031     r803      1
    c8032     Obj       33
    c8032     r802      1
    c8032     r803      1
    c8033     Obj       34
    c8033     r802      1
    c8033     r803      1
    c8034     Obj       35
    c8034     r802      1
    c8034     r803      1
    c8035     Obj       36
    c8035     r803      1
    c8036     Obj       37
    c8036     r803      1
    c8037     Obj       38
    c8037     r803      1
    c8038     Obj       39
    c8038     r803      1
    c8039     Obj       40
    c8039     r803      1
    c8040     Obj       41
    c8040     r803      1
    c8040     r804      1
    c8041     Obj       42
    c8041     r803      1
    c8041     r804      1
    c8042     Obj       43
    c8042     r803      1
    c8042     r804      1
    c8043     Obj       44
    c8043     r803      1
    c8043     r804      1
    c8044     Obj       45
    c8044     r803      1
    c8044     r804      1
    c8045     Obj       46
    c8045     r804      1
    c8046     Obj       47
    c8046     r804      1
    c8047     Obj       48
    c8047     r804      1
    c8048     Obj       49
    c8048     r804      1
    c8049     Obj       50
    c8049     r804      1
    c8050     Obj       51
    c8050     r804      1
    c8050     r805      1
    c8051     Obj       52
    c8051     r804      1
    c8051     r805      1
    c8052     Obj       53
    c8052     r804      1
    c8052     r805      1
    c8053     Obj       54
    c8053     r804      1
    c8053     r805      1
    c8054     Obj       55
    c8054     r804      1
    c8054     r805      1
    c8055     Obj       56
    c8055     r805      1
    c8056     Obj       57
    c8056     r805      1
    c8057     Obj       58
    c8057     r805      1
    c8058     Obj       59
    c8058     r805      1
    c8059     Obj       60
    c8059     r805      1
    c8060     Obj       61
    c8060     r805      1
    c8060     r806      1
    c8061     Obj       62
    c8061     r805      1
    c8061     r806      1
    c8062     Obj       63
    c8062     r805      1
    c8062     r806      1
    c8063     Obj       64
    c8063     r805      1
    c8063     r806      1
    c8064     Obj       65
    c8064     r805      1
    c8064     r806      1
    c8065     Obj       66
    c8065     r806      1
    c8066     Obj       67
    c8066     r806      1
    c8067     Obj       68
    c8067     r806      1
    c8068     Obj       69
    c8068     r806      1
    c8069     Obj       70
    c8069     r806      1
    c8070     Obj       71
    c8070     r806      1
    c8070     r807      1
    c8071     Obj       72
    c8071     r806      1
    c8071     r807      1
    c8072     Obj       73
    c8072     r806      1
    c8072     r807      1
    c8073     Obj       74
    c8073     r806      1
    c8073     r807      1
    c8074     Obj       75
    c8074     r806      1
    c8074     r807      1
    c8075     Obj       76
    c8075     r807      1
    c8076     Obj       77
    c8076     r807      1
    c8077     Obj       78
    c8077     r807      1
    c8078     Obj       79
    c8078     r807      1
    c8079     Obj       80
    c8079     r807      1
    c8080     Obj       81
    c8080     r807      1
    c8080     r808      1
    c8081     Obj       82
    c8081     r807      1
    c8081     r808      1
    c8082     Obj       83
    c8082     r807      1
    c8082     r808      1
    c8083     Obj       84
    c8083     r807      1
    c8083     r808      1
    c8084     Obj       85
    c8084     r807      1
    c8084     r808      1
    c8085     Obj       86
    c8085     r808      1
    c8086     Obj       87
    c8086     r808      1
    c8087     Obj       88
    c8087     r808      1
    c8088     Obj       89
    c8088     r808      1
    c8089     Obj       90
    c8089     r808      1
    c8090     Obj       91
    c8090     r808      1
    c8090     r809      1
    c8091     Obj       92
    c8091     r808      1
    c8091     r809      1
    c8092     Obj       93
    c8092     r808      1
    c8092     r809      1
    c8093     Obj       94
    c8093     r808      1
    c8093     r809      1
    c8094     Obj       95
    c8094     r808      1
    c8094     r809      1
    c8095     Obj       96
    c8095     r809      1
    c8096     Obj       97
    c8096     r809      1
    c8097     Obj       98
    c8097     r809      1
    c8098     Obj       99
    c8098     r809      1
    c8099     Obj       100
    c8099     r809      1
    c8100     Obj       1
    c8100     r809      1
    c8100     r810      1
    c8101     Obj       2
    c8101     r809      1
    c8101     r810      1
    c8102     Obj       3
    c8102     r809      1
    c8102     r810      1
    c8103     Obj       4
    c8103     r809      1
    c8103     r810      1
    c8104     Obj       5
    c8104     r809      1
    c8104     r810      1
    c8105     Obj       6
    c8105     r810      1
    c8106     Obj       7
    c8106     r810      1
    c8107     Obj       8
    c8107     r810      1
    c8108     Obj       9
    c8108     r810      1
    c8109     Obj       10
    c8109     r810      1
    c8110     Obj       11
    c8110     r810      1
    c8110     r811      1
    c8111     Obj       12
    c8111     r810      1
    c8111     r811      1
    c8112     Obj       13
    c8112     r810      1
    c8112     r811      1
    c8113     Obj       14
    c8113     r810      1
    c8113     r811      1
    c8114     Obj       15
    c8114     r810      1
    c8114     r811      1
    c8115     Obj       16
    c8115     r811      1
    c8116     Obj       17
    c8116     r811      1
    c8117     Obj       18
    c8117     r811      1
    c8118     Obj       19
    c8118     r811      1
    c8119     Obj       20
    c8119     r811      1
    c8120     Obj       21
    c8120     r811      1
    c8120     r812      1
    c8121     Obj       22
    c8121     r811      1
    c8121     r812      1
    c8122     Obj       23
    c8122     r811      1
    c8122     r812      1
    c8123     Obj       24
    c8123     r811      1
    c8123     r812      1
    c8124     Obj       25
    c8124     r811      1
    c8124     r812      1
    c8125     Obj       26
    c8125     r812      1
    c8126     Obj       27
    c8126     r812      1
    c8127     Obj       28
    c8127     r812      1
    c8128     Obj       29
    c8128     r812      1
    c8129     Obj       30
    c8129     r812      1
    c8130     Obj       31
    c8130     r812      1
    c8130     r813      1
    c8131     Obj       32
    c8131     r812      1
    c8131     r813      1
    c8132     Obj       33
    c8132     r812      1
    c8132     r813      1
    c8133     Obj       34
    c8133     r812      1
    c8133     r813      1
    c8134     Obj       35
    c8134     r812      1
    c8134     r813      1
    c8135     Obj       36
    c8135     r813      1
    c8136     Obj       37
    c8136     r813      1
    c8137     Obj       38
    c8137     r813      1
    c8138     Obj       39
    c8138     r813      1
    c8139     Obj       40
    c8139     r813      1
    c8140     Obj       41
    c8140     r813      1
    c8140     r814      1
    c8141     Obj       42
    c8141     r813      1
    c8141     r814      1
    c8142     Obj       43
    c8142     r813      1
    c8142     r814      1
    c8143     Obj       44
    c8143     r813      1
    c8143     r814      1
    c8144     Obj       45
    c8144     r813      1
    c8144     r814      1
    c8145     Obj       46
    c8145     r814      1
    c8146     Obj       47
    c8146     r814      1
    c8147     Obj       48
    c8147     r814      1
    c8148     Obj       49
    c8148     r814      1
    c8149     Obj       50
    c8149     r814      1
    c8150     Obj       51
    c8150     r814      1
    c8150     r815      1
    c8151     Obj       52
    c8151     r814      1
    c8151     r815      1
    c8152     Obj       53
    c8152     r814      1
    c8152     r815      1
    c8153     Obj       54
    c8153     r814      1
    c8153     r815      1
    c8154     Obj       55
    c8154     r814      1
    c8154     r815      1
    c8155     Obj       56
    c8155     r815      1
    c8156     Obj       57
    c8156     r815      1
    c8157     Obj       58
    c8157     r815      1
    c8158     Obj       59
    c8158     r815      1
    c8159     Obj       60
    c8159     r815      1
    c8160     Obj       61
    c8160     r815      1
    c8160     r816      1
    c8161     Obj       62
    c8161     r815      1
    c8161     r816      1
    c8162     Obj       63
    c8162     r815      1
    c8162     r816      1
    c8163     Obj       64
    c8163     r815      1
    c8163     r816      1
    c8164     Obj       65
    c8164     r815      1
    c8164     r816      1
    c8165     Obj       66
    c8165     r816      1
    c8166     Obj       67
    c8166     r816      1
    c8167     Obj       68
    c8167     r816      1
    c8168     Obj       69
    c8168     r816      1
    c8169     Obj       70
    c8169     r816      1
    c8170     Obj       71
    c8170     r816      1
    c8170     r817      1
    c8171     Obj       72
    c8171     r816      1
    c8171     r817      1
    c8172     Obj       73
    c8172     r816      1
    c8172     r817      1
    c8173     Obj       74
    c8173     r816      1
    c8173     r817      1
    c8174     Obj       75
    c8174     r816      1
    c8174     r817      1
    c8175     Obj       76
    c8175     r817      1
    c8176     Obj       77
    c8176     r817      1
    c8177     Obj       78
    c8177     r817      1
    c8178     Obj       79
    c8178     r817      1
    c8179     Obj       80
    c8179     r817      1
    c8180     Obj       81
    c8180     r817      1
    c8180     r818      1
    c8181     Obj       82
    c8181     r817      1
    c8181     r818      1
    c8182     Obj       83
    c8182     r817      1
    c8182     r818      1
    c8183     Obj       84
    c8183     r817      1
    c8183     r818      1
    c8184     Obj       85
    c8184     r817      1
    c8184     r818      1
    c8185     Obj       86
    c8185     r818      1
    c8186     Obj       87
    c8186     r818      1
    c8187     Obj       88
    c8187     r818      1
    c8188     Obj       89
    c8188     r818      1
    c8189     Obj       90
    c8189     r818      1
    c8190     Obj       91
    c8190     r818      1
    c8190     r819      1
    c8191     Obj       92
    c8191     r818      1
    c8191     r819      1
    c8192     Obj       93
    c8192     r818      1
    c8192     r819      1
    c8193     Obj       94
    c8193     r818      1
    c8193     r819      1
    c8194     Obj       95
    c8194     r818      1
    c8194     r819      1
    c8195     Obj       96
    c8195     r819      1
    c8196     Obj       97
    c8196     r819      1
    c8197     Obj       98
    c8197     r819      1
    c8198     Obj       99
    c8198     r819      1
    c8199     Obj       100
    c8199     r819      1
    c8200     Obj       1
    c8200     r819      1
    c8200     r820      1
    c8201     Obj       2
    c8201     r819      1
    c8201     r820      1
    c8202     Obj       3
    c8202     r819      1
    c8202     r820      1
    c8203     Obj       4
    c8203     r819      1
    c8203     r820      1
    c8204     Obj       5
    c8204     r819      1
    c8204     r820      1
    c8205     Obj       6
    c8205     r820      1
    c8206     Obj       7
    c8206     r820      1
    c8207     Obj       8
    c8207     r820      1
    c8208     Obj       9
    c8208     r820      1
    c8209     Obj       10
    c8209     r820      1
    c8210     Obj       11
    c8210     r820      1
    c8210     r821      1
    c8211     Obj       12
    c8211     r820      1
    c8211     r821      1
    c8212     Obj       13
    c8212     r820      1
    c8212     r821      1
    c8213     Obj       14
    c8213     r820      1
    c8213     r821      1
    c8214     Obj       15
    c8214     r820      1
    c8214     r821      1
    c8215     Obj       16
    c8215     r821      1
    c8216     Obj       17
    c8216     r821      1
    c8217     Obj       18
    c8217     r821      1
    c8218     Obj       19
    c8218     r821      1
    c8219     Obj       20
    c8219     r821      1
    c8220     Obj       21
    c8220     r821      1
    c8220     r822      1
    c8221     Obj       22
    c8221     r821      1
    c8221     r822      1
    c8222     Obj       23
    c8222     r821      1
    c8222     r822      1
    c8223     Obj       24
    c8223     r821      1
    c8223     r822      1
    c8224     Obj       25
    c8224     r821      1
    c8224     r822      1
    c8225     Obj       26
    c8225     r822      1
    c8226     Obj       27
    c8226     r822      1
    c8227     Obj       28
    c8227     r822      1
    c8228     Obj       29
    c8228     r822      1
    c8229     Obj       30
    c8229     r822      1
    c8230     Obj       31
    c8230     r822      1
    c8230     r823      1
    c8231     Obj       32
    c8231     r822      1
    c8231     r823      1
    c8232     Obj       33
    c8232     r822      1
    c8232     r823      1
    c8233     Obj       34
    c8233     r822      1
    c8233     r823      1
    c8234     Obj       35
    c8234     r822      1
    c8234     r823      1
    c8235     Obj       36
    c8235     r823      1
    c8236     Obj       37
    c8236     r823      1
    c8237     Obj       38
    c8237     r823      1
    c8238     Obj       39
    c8238     r823      1
    c8239     Obj       40
    c8239     r823      1
    c8240     Obj       41
    c8240     r823      1
    c8240     r824      1
    c8241     Obj       42
    c8241     r823      1
    c8241     r824      1
    c8242     Obj       43
    c8242     r823      1
    c8242     r824      1
    c8243     Obj       44
    c8243     r823      1
    c8243     r824      1
    c8244     Obj       45
    c8244     r823      1
    c8244     r824      1
    c8245     Obj       46
    c8245     r824      1
    c8246     Obj       47
    c8246     r824      1
    c8247     Obj       48
    c8247     r824      1
    c8248     Obj       49
    c8248     r824      1
    c8249     Obj       50
    c8249     r824      1
    c8250     Obj       51
    c8250     r824      1
    c8251     Obj       52
    c8251     r824      1
    c8252     Obj       53
    c8252     r824      1
    c8253     Obj       54
    c8253     r824      1
    c8254     Obj       55
    c8254     r824      1
    c8255     Obj       56
    c8256     Obj       57
    c8257     Obj       58
    c8258     Obj       59
    c8259     Obj       60
    c8260     Obj       61
    c8261     Obj       62
    c8262     Obj       63
    c8263     Obj       64
    c8264     Obj       65
    c8265     Obj       66
    c8266     Obj       67
    c8267     Obj       68
    c8268     Obj       69
    c8269     Obj       70
    c8270     Obj       71
    c8271     Obj       72
    c8272     Obj       73
    c8273     Obj       74
    c8274     Obj       75
    c8275     Obj       76
    c8276     Obj       77
    c8277     Obj       78
    c8278     Obj       79
    c8279     Obj       80
    c8280     Obj       81
    c8281     Obj       82
    c8282     Obj       83
    c8283     Obj       84
    c8284     Obj       85
    c8285     Obj       86
    c8286     Obj       87
    c8287     Obj       88
    c8288     Obj       89
    c8289     Obj       90
    c8290     Obj       91
    c8291     Obj       92
    c8292     Obj       93
    c8293     Obj       94
    c8294     Obj       95
    c8295     Obj       96
    c8296     Obj       97
    c8297     Obj       98
    c8298     Obj       99
    c8299     Obj       100
    c8300     Obj       1
    c8301     Obj       2
    c8302     Obj       3
    c8303     Obj       4
    c8304     Obj       5
    c8305     Obj       6
    c8306     Obj       7
    c8307     Obj       8
    c8308     Obj       9
    c8309     Obj       10
    c8310     Obj       11
    c8311     Obj       12
    c8312     Obj       13
    c8313     Obj       14
    c8314     Obj       15
    c8315     Obj       16
    c8316     Obj       17
    c8317     Obj       18
    c8318     Obj       19
    c8319     Obj       20
    c8320     Obj       21
    c8321     Obj       22
    c8322     Obj       23
    c8323     Obj       24
    c8324     Obj       25
    c8325     Obj       26
    c8326     Obj       27
    c8327     Obj       28
    c8328     Obj       29
    c8329     Obj       30
    c8330     Obj       31
    c8331     Obj       32
    c8332     Obj       33
    c8333     Obj       34
    c8334     Obj       35
    c8335     Obj       36
    c8336     Obj       37
    c8337     Obj       38
    c8338     Obj       39
    c8339     Obj       40
    c8340     Obj       41
    c8341     Obj       42
    c8342     Obj       43
    c8343     Obj       44
    c8344     Obj       45
    c8345     Obj       46
    c8346     Obj       47
    c8347     Obj       48
    c8348     Obj       49
    c8349     Obj       50
    c8350     Obj       51
    c8351     Obj       52
    c8352     Obj       53
    c8353     Obj       54
    c8354     Obj       55
    c8355     Obj       56
    c8356     Obj       57
    c8357     Obj       58
    c8358     Obj       59
    c8359     Obj       60
    c8360     Obj       61
    c8361     Obj       62
    c8362     Obj       63
    c8363     Obj       64
    c8364     Obj       65
    c8365     Obj       66
    c8366     Obj       67
    c8367     Obj       68
    c8368     Obj       69
    c8369     Obj       70
    c8370     Obj       71
    c8371     Obj       72
    c8372     Obj       73
    c8373     Obj       74
    c8374     Obj       75
    c8375     Obj       76
    c8376     Obj       77
    c8377     Obj       78
    c8378     Obj       79
    c8379     Obj       80
    c8380     Obj       81
    c8381     Obj       82
    c8382     Obj       83
    c8383     Obj       84
    c8384     Obj       85
    c8385     Obj       86
    c8386     Obj       87
    c8387     Obj       88
    c8388     Obj       89
    c8389     Obj       90
    c8390     Obj       91
    c8391     Obj       92
    c8392     Obj       93
    c8393     Obj       94
    c8394     Obj       95
    c8395     Obj       96
    c8396     Obj       97
    c8397     Obj       98
    c8398     Obj       99
    c8399     Obj       100
    c8400     Obj       1
    c8401     Obj       2
    c8402     Obj       3
    c8403     Obj       4
    c8404     Obj       5
    c8405     Obj       6
    c8406     Obj       7
    c8407     Obj       8
    c8408     Obj       9
    c8409     Obj       10
    c8410     Obj       11
    c8411     Obj       12
    c8412     Obj       13
    c8413     Obj       14
    c8414     Obj       15
    c8415     Obj       16
    c8416     Obj       17
    c8417     Obj       18
    c8418     Obj       19
    c8419     Obj       20
    c8420     Obj       21
    c8421     Obj       22
    c8422     Obj       23
    c8423     Obj       24
    c8424     Obj       25
    c8425     Obj       26
    c8426     Obj       27
    c8427     Obj       28
    c8428     Obj       29
    c8429     Obj       30
    c8430     Obj       31
    c8431     Obj       32
    c8432     Obj       33
    c8433     Obj       34
    c8434     Obj       35
    c8435     Obj       36
    c8436     Obj       37
    c8437     Obj       38
    c8438     Obj       39
    c8439     Obj       40
    c8440     Obj       41
    c8441     Obj       42
    c8442     Obj       43
    c8443     Obj       44
    c8444     Obj       45
    c8445     Obj       46
    c8446     Obj       47
    c8447     Obj       48
    c8448     Obj       49
    c8449     Obj       50
    c8450     Obj       51
    c8451     Obj       52
    c8452     Obj       53
    c8453     Obj       54
    c8454     Obj       55
    c8455     Obj       56
    c8456     Obj       57
    c8457     Obj       58
    c8458     Obj       59
    c8459     Obj       60
    c8460     Obj       61
    c8461     Obj       62
    c8462     Obj       63
    c8463     Obj       64
    c8464     Obj       65
    c8465     Obj       66
    c8466     Obj       67
    c8467     Obj       68
    c8468     Obj       69
    c8469     Obj       70
    c8470     Obj       71
    c8471     Obj       72
    c8472     Obj       73
    c8473     Obj       74
    c8474     Obj       75
    c8475     Obj       76
    c8476     Obj       77
    c8477     Obj       78
    c8478     Obj       79
    c8479     Obj       80
    c8480     Obj       81
    c8481     Obj       82
    c8482     Obj       83
    c8483     Obj       84
    c8484     Obj       85
    c8485     Obj       86
    c8486     Obj       87
    c8487     Obj       88
    c8488     Obj       89
    c8489     Obj       90
    c8490     Obj       91
    c8491     Obj       92
    c8492     Obj       93
    c8493     Obj       94
    c8494     Obj       95
    c8495     Obj       96
    c8496     Obj       97
    c8497     Obj       98
    c8498     Obj       99
    c8499     Obj       100
    c8500     Obj       1
    c8501     Obj       2
    c8502     Obj       3
    c8503     Obj       4
    c8504     Obj       5
    c8505     Obj       6
    c8506     Obj       7
    c8507     Obj       8
    c8508     Obj       9
    c8509     Obj       10
    c8510     Obj       11
    c8511     Obj       12
    c8512     Obj       13
    c8513     Obj       14
    c8514     Obj       15
    c8515     Obj       16
    c8516     Obj       17
    c8517     Obj       18
    c8518     Obj       19
    c8519     Obj       20
    c8520     Obj       21
    c8521     Obj       22
    c8522     Obj       23
    c8523     Obj       24
    c8524     Obj       25
    c8525     Obj       26
    c8526     Obj       27
    c8527     Obj       28
    c8528     Obj       29
    c8529     Obj       30
    c8530     Obj       31
    c8531     Obj       32
    c8532     Obj       33
    c8533     Obj       34
    c8534     Obj       35
    c8535     Obj       36
    c8536     Obj       37
    c8537     Obj       38
    c8538     Obj       39
    c8539     Obj       40
    c8540     Obj       41
    c8541     Obj       42
    c8542     Obj       43
    c8543     Obj       44
    c8544     Obj       45
    c8545     Obj       46
    c8546     Obj       47
    c8547     Obj       48
    c8548     Obj       49
    c8549     Obj       50
    c8550     Obj       51
    c8551     Obj       52
    c8552     Obj       53
    c8553     Obj       54
    c8554     Obj       55
    c8555     Obj       56
    c8556     Obj       57
    c8557     Obj       58
    c8558     Obj       59
    c8559     Obj       60
    c8560     Obj       61
    c8561     Obj       62
    c8562     Obj       63
    c8563     Obj       64
    c8564     Obj       65
    c8565     Obj       66
    c8566     Obj       67
    c8567     Obj       68
    c8568     Obj       69
    c8569     Obj       70
    c8570     Obj       71
    c8571     Obj       72
    c8572     Obj       73
    c8573     Obj       74
    c8574     Obj       75
    c8575     Obj       76
    c8576     Obj       77
    c8577     Obj       78
    c8578     Obj       79
    c8579     Obj       80
    c8580     Obj       81
    c8581     Obj       82
    c8582     Obj       83
    c8583     Obj       84
    c8584     Obj       85
    c8585     Obj       86
    c8586     Obj       87
    c8587     Obj       88
    c8588     Obj       89
    c8589     Obj       90
    c8590     Obj       91
    c8591     Obj       92
    c8592     Obj       93
    c8593     Obj       94
    c8594     Obj       95
    c8595     Obj       96
    c8596     Obj       97
    c8597     Obj       98
    c8598     Obj       99
    c8599     Obj       100
    c8600     Obj       1
    c8601     Obj       2
    c8602     Obj       3
    c8603     Obj       4
    c8604     Obj       5
    c8605     Obj       6
    c8606     Obj       7
    c8607     Obj       8
    c8608     Obj       9
    c8609     Obj       10
    c8610     Obj       11
    c8611     Obj       12
    c8612     Obj       13
    c8613     Obj       14
    c8614     Obj       15
    c8615     Obj       16
    c8616     Obj       17
    c8617     Obj       18
    c8618     Obj       19
    c8619     Obj       20
    c8620     Obj       21
    c8621     Obj       22
    c8622     Obj       23
    c8623     Obj       24
    c8624     Obj       25
    c8625     Obj       26
    c8626     Obj       27
    c8627     Obj       28
    c8628     Obj       29
    c8629     Obj       30
    c8630     Obj       31
    c8631     Obj       32
    c8632     Obj       33
    c8633     Obj       34
    c8634     Obj       35
    c8635     Obj       36
    c8636     Obj       37
    c8637     Obj       38
    c8638     Obj       39
    c8639     Obj       40
    c8640     Obj       41
    c8641     Obj       42
    c8642     Obj       43
    c8643     Obj       44
    c8644     Obj       45
    c8645     Obj       46
    c8646     Obj       47
    c8647     Obj       48
    c8648     Obj       49
    c8649     Obj       50
    c8650     Obj       51
    c8651     Obj       52
    c8652     Obj       53
    c8653     Obj       54
    c8654     Obj       55
    c8655     Obj       56
    c8656     Obj       57
    c8657     Obj       58
    c8658     Obj       59
    c8659     Obj       60
    c8660     Obj       61
    c8661     Obj       62
    c8662     Obj       63
    c8663     Obj       64
    c8664     Obj       65
    c8665     Obj       66
    c8666     Obj       67
    c8667     Obj       68
    c8668     Obj       69
    c8669     Obj       70
    c8670     Obj       71
    c8671     Obj       72
    c8672     Obj       73
    c8673     Obj       74
    c8674     Obj       75
    c8675     Obj       76
    c8676     Obj       77
    c8677     Obj       78
    c8678     Obj       79
    c8679     Obj       80
    c8680     Obj       81
    c8681     Obj       82
    c8682     Obj       83
    c8683     Obj       84
    c8684     Obj       85
    c8685     Obj       86
    c8686     Obj       87
    c8687     Obj       88
    c8688     Obj       89
    c8689     Obj       90
    c8690     Obj       91
    c8691     Obj       92
    c8692     Obj       93
    c8693     Obj       94
    c8694     Obj       95
    c8695     Obj       96
    c8696     Obj       97
    c8697     Obj       98
    c8698     Obj       99
    c8699     Obj       100
    c8700     Obj       1
    c8701     Obj       2
    c8702     Obj       3
    c8703     Obj       4
    c8704     Obj       5
    c8705     Obj       6
    c8706     Obj       7
    c8707     Obj       8
    c8708     Obj       9
    c8709     Obj       10
    c8710     Obj       11
    c8711     Obj       12
    c8712     Obj       13
    c8713     Obj       14
    c8714     Obj       15
    c8715     Obj       16
    c8716     Obj       17
    c8717     Obj       18
    c8718     Obj       19
    c8719     Obj       20
    c8720     Obj       21
    c8721     Obj       22
    c8722     Obj       23
    c8723     Obj       24
    c8724     Obj       25
    c8725     Obj       26
    c8726     Obj       27
    c8727     Obj       28
    c8728     Obj       29
    c8729     Obj       30
    c8730     Obj       31
    c8731     Obj       32
    c8732     Obj       33
    c8733     Obj       34
    c8734     Obj       35
    c8735     Obj       36
    c8736     Obj       37
    c8737     Obj       38
    c8738     Obj       39
    c8739     Obj       40
    c8740     Obj       41
    c8741     Obj       42
    c8742     Obj       43
    c8743     Obj       44
    c8744     Obj       45
    c8745     Obj       46
    c8746     Obj       47
    c8747     Obj       48
    c8748     Obj       49
    c8749     Obj       50
    c8750     Obj       51
    c8751     Obj       52
    c8752     Obj       53
    c8753     Obj       54
    c8754     Obj       55
    c8755     Obj       56
    c8756     Obj       57
    c8757     Obj       58
    c8758     Obj       59
    c8759     Obj       60
    c8760     Obj       61
    c8761     Obj       62
    c8762     Obj       63
    c8763     Obj       64
    c8764     Obj       65
    c8765     Obj       66
    c8766     Obj       67
    c8767     Obj       68
    c8768     Obj       69
    c8769     Obj       70
    c8770     Obj       71
    c8771     Obj       72
    c8772     Obj       73
    c8773     Obj       74
    c8774     Obj       75
    c8775     Obj       76
    c8776     Obj       77
    c8777     Obj       78
    c8778     Obj       79
    c8779     Obj       80
    c8780     Obj       81
    c8781     Obj       82
    c8782     Obj       83
    c8783     Obj       84
    c8784     Obj       85
    c8785     Obj       86
    c8786     Obj       87
    c8787     Obj       88
    c8788     Obj       89
    c8789     Obj       90
    c8790     Obj       91
    c8791     Obj       92
    c8792     Obj       93
    c8793     Obj       94
    c8794     Obj       95
    c8795     Obj       96
    c8796     Obj       97
    c8797     Obj       98
    c8798     Obj       99
    c8799     Obj       100
    c8800     Obj       1
    c8801     Obj       2
    c8802     Obj       3
    c8803     Obj       4
    c8804     Obj       5
    c8805     Obj       6
    c8806     Obj       7
    c8807     Obj       8
    c8808     Obj       9
    c8809     Obj       10
    c8810     Obj       11
    c8811     Obj       12
    c8812     Obj       13
    c8813     Obj       14
    c8814     Obj       15
    c8815     Obj       16
    c8816     Obj       17
    c8817     Obj       18
    c8818     Obj       19
    c8819     Obj       20
    c8820     Obj       21
    c8821     Obj       22
    c8822     Obj       23
    c8823     Obj       24
    c8824     Obj       25
    c8825     Obj       26
    c8826     Obj       27
    c8827     Obj       28
    c8828     Obj       29
    c8829     Obj       30
    c8830     Obj       31
    c8831     Obj       32
    c8832     Obj       33
    c8833     Obj       34
    c8834     Obj       35
    c8835     Obj       36
    c8836     Obj       37
    c8837     Obj       38
    c8838     Obj       39
    c8839     Obj       40
    c8840     Obj       41
    c8841     Obj       42
    c8842     Obj       43
    c8843     Obj       44
    c8844     Obj       45
    c8845     Obj       46
    c8846     Obj       47
    c8847     Obj       48
    c8848     Obj       49
    c8849     Obj       50
    c8850     Obj       51
    c8851     Obj       52
    c8852     Obj       53
    c8853     Obj       54
    c8854     Obj       55
    c8855     Obj       56
    c8856     Obj       57
    c8857     Obj       58
    c8858     Obj       59
    c8859     Obj       60
    c8860     Obj       61
    c8861     Obj       62
    c8862     Obj       63
    c8863     Obj       64
    c8864     Obj       65
    c8865     Obj       66
    c8866     Obj       67
    c8867     Obj       68
    c8868     Obj       69
    c8869     Obj       70
    c8870     Obj       71
    c8871     Obj       72
    c8872     Obj       73
    c8873     Obj       74
    c8874     Obj       75
    c8875     Obj       76
    c8876     Obj       77
    c8877     Obj       78
    c8878     Obj       79
    c8879     Obj       80
    c8880     Obj       81
    c8881     Obj       82
    c8882     Obj       83
    c8883     Obj       84
    c8884     Obj       85
    c8885     Obj       86
    c8886     Obj       87
    c8887     Obj       88
    c8888     Obj       89
    c8889     Obj       90
    c8890     Obj       91
    c8891     Obj       92
    c8892     Obj       93
    c8893     Obj       94
    c8894     Obj       95
    c8895     Obj       96
    c8896     Obj       97
    c8897     Obj       98
    c8898     Obj       99
    c8899     Obj       100
    c8900     Obj       1
    c8901     Obj       2
    c8902     Obj       3
    c8903     Obj       4
    c8904     Obj       5
    c8905     Obj       6
    c8906     Obj       7
    c8907     Obj       8
    c8908     Obj       9
    c8909     Obj       10
    c8910     Obj       11
    c8911     Obj       12
    c8912     Obj       13
    c8913     Obj       14
    c8914     Obj       15
    c8915     Obj       16
    c8916     Obj       17
    c8917     Obj       18
    c8918     Obj       19
    c8919     Obj       20
    c8920     Obj       21
    c8921     Obj       22
    c8922     Obj       23
    c8923     Obj       24
    c8924     Obj       25
    c8925     Obj       26
    c8926     Obj       27
    c8927     Obj       28
    c8928     Obj       29
    c8929     Obj       30
    c8930     Obj       31
    c8931     Obj       32
    c8932     Obj       33
    c8933     Obj       34
    c8934     Obj       35
    c8935     Obj       36
    c8936     Obj       37
    c8937     Obj       38
    c8938     Obj       39
    c8939     Obj       40
    c8940     Obj       41
    c8941     Obj       42
    c8942     Obj       43
    c8943     Obj       44
    c8944     Obj       45
    c8945     Obj       46
    c8946     Obj       47
    c8947     Obj       48
    c8948     Obj       49
    c8949     Obj       50
    c8950     Obj       51
    c8951     Obj       52
    c8952     Obj       53
    c8953     Obj       54
    c8954     Obj       55
    c8955     Obj       56
    c8956     Obj       57
    c8957     Obj       58
    c8958     Obj       59
    c8959     Obj       60
    c8960     Obj       61
    c8961     Obj       62
    c8962     Obj       63
    MARK0001  'MARKER'                 'INTEND'
RHS
    RHS_V     r0        1
    RHS_V     r1        1
    RHS_V     r2        1
    RHS_V     r3        1
    RHS_V     r4        1
    RHS_V     r5        1
    RHS_V     r6        1
    RHS_V     r7        1
    RHS_V     r8        1
    RHS_V     r9        1
    RHS_V     r10       1
    RHS_V     r11       1
    RHS_V     r12       1
    RHS_V     r13       1
    RHS_V     r14       1
    RHS_V     r15       1
    RHS_V     r16       1
    RHS_V     r17       1
    RHS_V     r18       1
    RHS_V     r19       1
    RHS_V     r20       1
    RHS_V     r21       1
    RHS_V     r22       1
    RHS_V     r23       1
    RHS_V     r24       1
    RHS_V     r25       1
    RHS_V     r26       1
    RHS_V     r27       1
    RHS_V     r28       1
    RHS_V     r29       1
    RHS_V     r30       1
    RHS_V     r31       1
    RHS_V     r32       1
    RHS_V     r33       1
    RHS_V     r34       1
    RHS_V     r35       1
    RHS_V     r36       1
    RHS_V     r37       1
    RHS_V     r38       1
    RHS_V     r39       1
    RHS_V     r40       1
    RHS_V     r41       1
    RHS_V     r42       1
    RHS_V     r43       1
    RHS_V     r44       1
    RHS_V     r45       1
    RHS_V     r46       1
    RHS_V     r47       1
    RHS_V     r48       1
    RHS_V     r49       1
    RHS_V     r50       1
    RHS_V     r51       1
    RHS_V     r52       1
    RHS_V     r53       1
    RHS_V     r54       1
    RHS_V     r55       1
    RHS_V     r56       1
    RHS_V     r57       1
    RHS_V     r58       1
    RHS_V     r59       1
    RHS_V     r60       1
    RHS_V     r61       1
    RHS_V     r62       1
    RHS_V     r63       1
    RHS_V     r64       1
    RHS_V     r65       1
    RHS_V     r66       1
    RHS_V     r67       1
    RHS_V     r68       1
    RHS_V     r69       1
    RHS_V     r70       1
    RHS_V     r71       1
    RHS_V     r72       1
    RHS_V     r73       1
    RHS_V     r74       1
    RHS_V     r75       1
    RHS_V     r76       1
    RHS_V     r77       1
    RHS_V     r78       1
    RHS_V     r79       1
    RHS_V     r80       1
    RHS_V     r81       1
    RHS_V     r82       1
    RHS_V     r83       1
    RHS_V     r84       1
    RHS_V     r85       1
    RHS_V     r86       1
    RHS_V     r87       1
    RHS_V     r88       1
    RHS_V     r89       1
    RHS_V     r90       1
    RHS_V     r91       1
    RHS_V     r92       1
    RHS_V     r93       1
    RHS_V     r94       1
    RHS_V     r95       1
    RHS_V     r96       1
    RHS_V     r97       1
    RHS_V     r98       1
    RHS_V     r99       1
    RHS_V     r100      1
    RHS_V     r101      1
    RHS_V     r102      1
    RHS_V     r103      1
    RHS_V     r104      1
    RHS_V     r105      1
    RHS_V     r106      1
    RHS_V     r107      1
    RHS_V     r108      1
    RHS_V     r109      1
    RHS_V     r110      1
    RHS_V     r111      1
    RHS_V     r112      1
    RHS_V     r113      1
    RHS_V     r114      1
    RHS_V     r115      1
    RHS_V     r116      1
    RHS_V     r117      1
    RHS_V     r118      1
    RHS_V     r119      1
    RHS_V     r120      1
    RHS_V     r121      1
    RHS_V     r122      1
    RHS_V     r123      1
    RHS_V     r124      1
    RHS_V     r125      1
    RHS_V     r126      1
    RHS_V     r127      1
    RHS_V     r128      1
    RHS_V     r129      1
    RHS_V     r130      1
    RHS_V     r131      1
    RHS_V     r132      1
    RHS_V     r133      1
    RHS_V     r134      1
    RHS_V     r135      1
    RHS_V     r136      1
    RHS_V     r137      1
    RHS_V     r138      1
    RHS_V     r139      1
    RHS_V     r140      1
    RHS_V     r141      1
    RHS_V     r142      1
    RHS_V     r143      1
    RHS_V     r144      1
    RHS_V     r145      1
    RHS_V     r146      1
    RHS_V     r147      1
    RHS_V     r148      1
    RHS_V     r149      1
    RHS_V     r150      1
    RHS_V     r151      1
    RHS_V     r152      1
    RHS_V     r153      1
    RHS_V     r154      1
    RHS_V     r155      1
    RHS_V     r156      1
    RHS_V     r157      1
    RHS_V     r158      1
    RHS_V     r159      1
    RHS_V     r160      1
    RHS_V     r161      1
    RHS_V     r162      1
    RHS_V     r163      1
    RHS_V     r164      1
    RHS_V     r165      1
    RHS_V     r166      1
    RHS_V     r167      1
    RHS_V     r168      1
    RHS_V     r169      1
    RHS_V     r170      1
    RHS_V     r171      1
    RHS_V     r172      1
    RHS_V     r173      1
    RHS_V     r174      1
    RHS_V     r175      1
    RHS_V     r176      1
    RHS_V     r177      1
    RHS_V     r178      1
    RHS_V     r179      1
    RHS_V     r180      1
    RHS_V     r181      1
    RHS_V     r182      1
    RHS_V     r183      1
    RHS_V     r184      1
    RHS_V     r185      1
    RHS_V     r186      1
    RHS_V     r187      1
    RHS_V     r188      1
    RHS_V     r189      1
    RHS_V     r190      1
    RHS_V     r191      1
    RHS_V     r192      1
    RHS_V     r193      1
    RHS_V     r194      1
    RHS_V     r195      1
    RHS_V     r196      1
    RHS_V     r197      1
    RHS_V     r198      1
    RHS_V     r199      1
    RHS_V     r200      1
    RHS_V     r201      1
    RHS_V     r202      1
    RHS_V     r203      1
    RHS_V     r204      1
    RHS_V     r205      1
    RHS_V     r206      1
    RHS_V     r207      1
    RHS_V     r208      1
    RHS_V     r209      1
    RHS_V     r210      1
    RHS_V     r211      1
    RHS_V     r212      1
    RHS_V     r213      1
    RHS_V     r214      1
    RHS_V     r215      1
    RHS_V     r216      1
    RHS_V     r217      1
    RHS_V     r218      1
    RHS_V     r219      1
    RHS_V     r220      1
    RHS_V     r221      1
    RHS_V     r222      1
    RHS_V     r223      1
    RHS_V     r224      1
    RHS_V     r225      1
    RHS_V     r226      1
    RHS_V     r227      1
    RHS_V     r228      1
    RHS_V     r229      1
    RHS_V     r230      1
    RHS_V     r231      1
    RHS_V     r232      1
    RHS_V     r233      1
    RHS_V     r234      1
    RHS_V     r235      1
    RHS_V     r236      1
    RHS_V     r237      1
    RHS_V     r238      1
    RHS_V     r239      1
    RHS_V     r240      1
    RHS_V     r241      1
    RHS_V     r242      1
    RHS_V     r243      1
    RHS_V     r244      1
    RHS_V     r245      1
    RHS_V     r246      1
    RHS_V     r247      1
    RHS_V     r248      1
    RHS_V     r249      1
    RHS_V     r250      1
    RHS_V     r251      1
    RHS_V     r252      1
    RHS_V     r253      1
    RHS_V     r254      1
    RHS_V     r255      1
    RHS_V     r256      1
    RHS_V     r257      1
    RHS_V     r258      1
    RHS_V     r259      1
    RHS_V     r260      1
    RHS_V     r261      1
    RHS_V     r262      1
    RHS_V     r263      1
    RHS_V     r264      1
    RHS_V     r265      1
    RHS_V     r266      1
    RHS_V     r267      1
    RHS_V     r268      1
    RHS_V     r269      1
    RHS_V     r270      1
    RHS_V     r271      1
    RHS_V     r272      1
    RHS_V     r273      1
    RHS_V     r274      1
    RHS_V     r275      1
    RHS_V     r276      1
    RHS_V     r277      1
    RHS_V     r278      1
    RHS_V     r279      1
    RHS_V     r280      1
    RHS_V     r281      1
    RHS_V     r282      1
    RHS_V     r283      1
    RHS_V     r284      1
    RHS_V     r285      1
    RHS_V     r286      1
    RHS_V     r287      1
    RHS_V     r288      1
    RHS_V     r289      1
    RHS_V     r290      1
    RHS_V     r291      1
    RHS_V     r292      1
    RHS_V     r293      1
    RHS_V     r294      1
    RHS_V     r295      1
    RHS_V     r296      1
    RHS_V     r297      1
    RHS_V     r298      1
    RHS_V     r299      1
    RHS_V     r300      1
    RHS_V     r301      1
    RHS_V     r302      1
    RHS_V     r303      1
    RHS_V     r304      1
    RHS_V     r305      1
    RHS_V     r306      1
    RHS_V     r307      1
    RHS_V     r308      1
    RHS_V     r309      1
    RHS_V     r310      1
    RHS_V     r311      1
    RHS_V     r312      1
    RHS_V     r313      1
    RHS_V     r314      1
    RHS_V     r315      1
    RHS_V     r316      1
    RHS_V     r317      1
    RHS_V     r318      1
    RHS_V     r319      1
    RHS_V     r320      1
    RHS_V     r321      1
    RHS_V     r322      1
    RHS_V     r323      1
    RHS_V     r324      1
    RHS_V     r325      1
    RHS_V     r326      1
    RHS_V     r327      1
    RHS_V     r328      1
    RHS_V     r329      1
    RHS_V     r330      1
    RHS_V     r331      1
    RHS_V     r332      1
    RHS_V     r333      1
    RHS_V     r334      1
    RHS_V     r335      1
    RHS_V     r336      1
    RHS_V     r337      1
    RHS_V     r338      1
    RHS_V     r339      1
    RHS_V     r340      1
    RHS_V     r341      1
    RHS_V     r342      1
    RHS_V     r343      1
    RHS_V     r344      1
    RHS_V     r345      1
    RHS_V     r346      1
    RHS_V     r347      1
    RHS_V     r348      1
    RHS_V     r349      1
    RHS_V     r350      1
    RHS_V     r351      1
    RHS_V     r352      1
    RHS_V     r353      1
    RHS_V     r354      1
    RHS_V     r355      1
    RHS_V     r356      1
    RHS_V     r357      1
    RHS_V     r358      1
    RHS_V     r359      1
    RHS_V     r360      1
    RHS_V     r361      1
    RHS_V     r362      1
    RHS_V     r363      1
    RHS_V     r364      1
    RHS_V     r365      1
    RHS_V     r366      1
    RHS_V     r367      1
    RHS_V     r368      1
    RHS_V     r369      1
    RHS_V     r370      1
    RHS_V     r371      1
    RHS_V     r372      1
    RHS_V     r373      1
    RHS_V     r374      1
    RHS_V     r375      1
    RHS_V     r376      1
    RHS_V     r377      1
    RHS_V     r378      1
    RHS_V     r379      1
    RHS_V     r380      1
    RHS_V     r381      1
    RHS_V     r382      1
    RHS_V     r383      1
    RHS_V     r384      1
    RHS_V     r385      1
    RHS_V     r386      1
    RHS_V     r387      1
    RHS_V     r388      1
    RHS_V     r389      1
    RHS_V     r390      1
    RHS_V     r391      1
    RHS_V     r392      1
    RHS_V     r393      1
    RHS_V     r394      1
    RHS_V     r395      1
    RHS_V     r396      1
    RHS_V     r397      1
    RHS_V     r398      1
    RHS_V     r399      1
    RHS_V     r400      1
    RHS_V     r401      1
    RHS_V     r402      1
    RHS_V     r403      1
    RHS_V     r404      1
    RHS_V     r405      1
    RHS_V     r406      1
    RHS_V     r407      1
    RHS_V     r408      1
    RHS_V     r409      1
    RHS_V     r410      1
    RHS_V     r411      1
    RHS_V     r412      1
    RHS_V     r413      1
    RHS_V     r414      1
    RHS_V     r415      1
    RHS_V     r416      1
    RHS_V     r417      1
    RHS_V     r418      1
    RHS_V     r419      1
    RHS_V     r420      1
    RHS_V     r421      1
    RHS_V     r422      1
    RHS_V     r423      1
    RHS_V     r424      1
    RHS_V     r425      1
    RHS_V     r426      1
    RHS_V     r427      1
    RHS_V     r428      1
    RHS_V     r429      1
    RHS_V     r430      1
    RHS_V     r431      1
    RHS_V     r432      1
    RHS_V     r433      1
    RHS_V     r434      1
    RHS_V     r435      1
    RHS_V     r436      1
    RHS_V     r437      1
    RHS_V     r438      1
    RHS_V     r439      1
    RHS_V     r440      1
    RHS_V     r441      1
    RHS_V     r442      1
    RHS_V     r443      1
    RHS_V     r444      1
    RHS_V     r445      1
    RHS_V     r446      1
    RHS_V     r447      1
    RHS_V     r448      1
    RHS_V     r449      1
    RHS_V     r450      1
    RHS_V     r451      1
    RHS_V     r452      1
    RHS_V     r453      1
    RHS_V     r454      1
    RHS_V     r455      1
    RHS_V     r456      1
    RHS_V     r457      1
    RHS_V     r458      1
    RHS_V     r459      1
    RHS_V     r460      1
    RHS_V     r461      1
    RHS_V     r462      1
    RHS_V     r463      1
    RHS_V     r464      1
    RHS_V     r465      1
    RHS_V     r466      1
    RHS_V     r467      1
    RHS_V     r468      1
    RHS_V     r469      1
    RHS_V     r470      1
    RHS_V     r471      1
    RHS_V     r472      1
    RHS_V     r473      1
    RHS_V     r474      1
    RHS_V     r475      1
    RHS_V     r476      1
    RHS_V     r477      1
    RHS_V     r478      1
    RHS_V     r479      1
    RHS_V     r480      1
    RHS_V     r481      1
    RHS_V     r482      1
    RHS_V     r483      1
    RHS_V     r484      1
    RHS_V     r485      1
    RHS_V     r486      1
    RHS_V     r487      1
    RHS_V     r488      1
    RHS_V     r489      1
    RHS_V     r490      1
    RHS_V     r491      1
    RHS_V     r492      1
    RHS_V     r493      1
    RHS_V     r494      1
    RHS_V     r495      1
    RHS_V     r496      1
    RHS_V     r497      1
    RHS_V     r498      1
    RHS_V     r499      1
    RHS_V     r500      1
    RHS_V     r501      1
    RHS_V     r502      1
    RHS_V     r503      1
    RHS_V     r504      1
    RHS_V     r505      1
    RHS_V     r506      1
    RHS_V     r507      1
    RHS_V     r508      1
    RHS_V     r509      1
    RHS_V     r510      1
    RHS_V     r511      1
    RHS_V     r512      1
    RHS_V     r513      1
    RHS_V     r514      1
    RHS_V     r515      1
    RHS_V     r516      1
    RHS_V     r517      1
    RHS_V     r518      1
    RHS_V     r519      1
    RHS_V     r520      1
    RHS_V     r521      1
    RHS_V     r522      1
    RHS_V     r523      1
    RHS_V     r524      1
    RHS_V     r525      1
    RHS_V     r526      1
    RHS_V     r527      1
    RHS_V     r528      1
    RHS_V     r529      1
    RHS_V     r530      1
    RHS_V     r531      1
    RHS_V     r532      1
    RHS_V     r533      1
    RHS_V     r534      1
    RHS_V     r535      1
    RHS_V     r536      1
    RHS_V     r537      1
    RHS_V     r538      1
    RHS_V     r539      1
    RHS_V     r540      1
    RHS_V     r541      1
    RHS_V     r542      1
    RHS_V     r543      1
    RHS_V     r544      1
    RHS_V     r545      1
    RHS_V     r546      1
    RHS_V     r547      1
    RHS_V     r548      1
    RHS_V     r549      1
    RHS_V     r550      1
    RHS_V     r551      1
    RHS_V     r552      1
    RHS_V     r553      1
    RHS_V     r554      1
    RHS_V     r555      1
    RHS_V     r556      1
    RHS_V     r557      1
    RHS_V     r558      1
    RHS_V     r559      1
    RHS_V     r560      1
    RHS_V     r561      1
    RHS_V     r562      1
    RHS_V     r563      1
    RHS_V     r564      1
    RHS_V     r565      1
    RHS_V     r566      1
    RHS_V     r567      1
    RHS_V     r568      1
    RHS_V     r569      1
    RHS_V     r570      1
    RHS_V     r571      1
    RHS_V     r572      1
    RHS_V     r573      1
    RHS_V     r574      1
    RHS_V     r575      1
    RHS_V     r576      1
    RHS_V     r577      1
    RHS_V     r578      1
    RHS_V     r579      1
    RHS_V     r580      1
    RHS_V     r581      1
    RHS_V     r582      1
    RHS_V     r583      1
    RHS_V     r584      1
    RHS_V     r585      1
    RHS_V     r586      1
    RHS_V     r587      1
    RHS_V     r588      1
    RHS_V     r589      1
    RHS_V     r590      1
    RHS_V     r591      1
    RHS_V     r592      1
    RHS_V     r593      1
    RHS_V     r594      1
    RHS_V     r595      1
    RHS_V     r596      1
    RHS_V     r597      1
    RHS_V     r598      1
    RHS_V     r599      1
    RHS_V     r600      1
    RHS_V     r601      1
    RHS_V     r602      1
    RHS_V     r603      1
    RHS_V     r604      1
    RHS_V     r605      1
    RHS_V     r606      1
    RHS_V     r607      1
    RHS_V     r608      1
    RHS_V     r609      1
    RHS_V     r610      1
    RHS_V     r611      1
    RHS_V     r612      1
    RHS_V     r613      1
    RHS_V     r614      1
    RHS_V     r615      1
    RHS_V     r616      1
    RHS_V     r617      1
    RHS_V     r618      1
    RHS_V     r619      1
    RHS_V     r620      1
    RHS_V     r621      1
    RHS_V     r622      1
    RHS_V     r623      1
    RHS_V     r624      1
    RHS_V     r625      1
    RHS_V     r626      1
    RHS_V     r627      1
    RHS_V     r628      1
    RHS_V     r629      1
    RHS_V     r630      1
    RHS_V     r631      1
    RHS_V     r632      1
    RHS_V     r633      1
    RHS_V     r634      1
    RHS_V     r635      1
    RHS_V     r636      1
    RHS_V     r637      1
    RHS_V     r638      1
    RHS_V     r639      1
    RHS_V     r640      1
    RHS_V     r641      1
    RHS_V     r642      1
    RHS_V     r643      1
    RHS_V     r644      1
    RHS_V     r645      1
    RHS_V     r646      1
    RHS_V     r647      1
    RHS_V     r648      1
    RHS_V     r649      1
    RHS_V     r650      1
    RHS_V     r651      1
    RHS_V     r652      1
    RHS_V     r653      1
    RHS_V     r654      1
    RHS_V     r655      1
    RHS_V     r656      1
    RHS_V     r657      1
    RHS_V     r658      1
    RHS_V     r659      1
    RHS_V     r660      1
    RHS_V     r661      1
    RHS_V     r662      1
    RHS_V     r663      1
    RHS_V     r664      1
    RHS_V     r665      1
    RHS_V     r666      1
    RHS_V     r667      1
    RHS_V     r668      1
    RHS_V     r669      1
    RHS_V     r670      1
    RHS_V     r671      1
    RHS_V     r672      1
    RHS_V     r673      1
    RHS_V     r674      1
    RHS_V     r675      1
    RHS_V     r676      1
    RHS_V     r677      1
    RHS_V     r678      1
    RHS_V     r679      1
    RHS_V     r680      1
    RHS_V     r681      1
    RHS_V     r682      1
    RHS_V     r683      1
    RHS_V     r684      1
    RHS_V     r685      1
    RHS_V     r686      1
    RHS_V     r687      1
    RHS_V     r688      1
    RHS_V     r689      1
    RHS_V     r690      1
    RHS_V     r691      1
    RHS_V     r692      1
    RHS_V     r693      1
    RHS_V     r694      1
    RHS_V     r695      1
    RHS_V     r696      1
    RHS_V     r697      1
    RHS_V     r698      1
    RHS_V     r699      1
    RHS_V     r700      1
    RHS_V     r701      1
    RHS_V     r702      1
    RHS_V     r703      1
    RHS_V     r704      1
    RHS_V     r705      1
    RHS_V     r706      1
    RHS_V     r707      1
    RHS_V     r708      1
    RHS_V     r709      1
    RHS_V     r710      1
    RHS_V     r711      1
    RHS_V     r712      1
    RHS_V     r713      1
    RHS_V     r714      1
    RHS_V     r715      1
    RHS_V     r716      1
    RHS_V     r717      1
    RHS_V     r718      1
    RHS_V     r719      1
    RHS_V     r720      1
    RHS_V     r721      1
    RHS_V     r722      1
    RHS_V     r723      1
    RHS_V     r724      1
    RHS_V     r725      1
    RHS_V     r726      1
    RHS_V     r727      1
    RHS_V     r728      1
    RHS_V     r729      1
    RHS_V     r730      1
    RHS_V     r731      1
    RHS_V     r732      1
    RHS_V     r733      1
    RHS_V     r734      1
    RHS_V     r735      1
    RHS_V     r736      1
    RHS_V     r737      1
    RHS_V     r738      1
    RHS_V     r739      1
    RHS_V     r740      1
    RHS_V     r741      1
    RHS_V     r742      1
    RHS_V     r743      1
    RHS_V     r744      1
    RHS_V     r745      1
    RHS_V     r746      1
    RHS_V     r747      1
    RHS_V     r748      1
    RHS_V     r749      1
    RHS_V     r750      1
    RHS_V     r751      1
    RHS_V     r752      1
    RHS_V     r753      1
    RHS_V     r754      1
    RHS_V     r755      1
    RHS_V     r756      1
    RHS_V     r757      1
    RHS_V     r758      1
    RHS_V     r759      1
    RHS_V     r760      1
    RHS_V     r761      1
    RHS_V     r762      1
    RHS_V     r763      1
    RHS_V     r764      1
    RHS_V     r765      1
    RHS_V     r766      1
    RHS_V     r767      1
    RHS_V     r768      1
    RHS_V     r769      1
    RHS_V     r770      1
    RHS_V     r771      1
    RHS_V     r772      1
    RHS_V     r773      1
    RHS_V     r774      1
    RHS_V     r775      1
    RHS_V     r776      1
    RHS_V     r777      1
    RHS_V     r778      1
    RHS_V     r779      1
    RHS_V     r780      1
    RHS_V     r781      1
    RHS_V     r782      1
    RHS_V     r783      1
    RHS_V     r784      1
    RHS_V     r785      1
    RHS_V     r786      1
    RHS_V     r787      1
    RHS_V     r788      1
    RHS_V     r789      1
    RHS_V     r790      1
    RHS_V     r791      1
    RHS_V     r792      1
    RHS_V     r793      1
    RHS_V     r794      1
    RHS_V     r795      1
    RHS_V     r796      1
    RHS_V     r797      1
    RHS_V     r798      1
    RHS_V     r799      1
    RHS_V     r800      1
    RHS_V     r801      1
    RHS_V     r802      1
    RHS_V     r803      1
    RHS_V     r804      1
    RHS_V     r805      1
    RHS_V     r806      1
    RHS_V     r807      1
    RHS_V     r808      1
    RHS_V     r809      1
    RHS_V     r810      1
    RHS_V     r811      1
    RHS_V     r812      1
    RHS_V     r813      1
    RHS_V     r814      1
    RHS_V     r815      1
    RHS_V     r816      1
    RHS_V     r817      1
    RHS_V     r818      1
    RHS_V     r819      1
    RHS_V     r820      1
    RHS_V     r821      1
    RHS_V     r822      1
    RHS_V     r823      1
    RHS_V     r824      1
BOUNDS
 BV BOUND     c0      
 BV BOUND     c1      
 BV BOUND     c2      
 BV BOUND     c3      
 BV BOUND     c4      
 BV BOUND     c5      
 BV BOUND     c6      
 BV BOUND     c7      
 BV BOUND     c8      
 BV BOUND     c9      
 BV BOUND     c10     
 BV BOUND     c11     
 BV BOUND     c12     
 BV BOUND     c13     
 BV BOUND     c14     
 BV BOUND     c15     
 BV BOUND     c16     
 BV BOUND     c17     
 BV BOUND     c18     
 BV BOUND     c19     
 BV BOUND     c20     
 BV BOUND     c21     
 BV BOUND     c22     
 BV BOUND     c23     
 BV BOUND     c24     
 BV BOUND     c25     
 BV BOUND     c26     
 BV BOUND     c27     
 BV BOUND     c28     
 BV BOUND     c29     
 BV BOUND     c30     
 BV BOUND     c31     
 BV BOUND     c32     
 BV BOUND     c33     
 BV BOUND     c34     
 BV BOUND     c35     
 BV BOUND     c36     
 BV BOUND     c37     
 BV BOUND     c38     
 BV BOUND     c39     
 BV BOUND     c40     
 BV BOUND     c41     
 BV BOUND     c42     
 BV BOUND     c43     
 BV BOUND     c44     
 BV BOUND     c45     
 BV BOUND     c46     
 BV BOUND     c47     
 BV BOUND     c48     
 BV BOUND     c49     
 BV BOUND     c50     
 BV BOUND     c51     
 BV BOUND     c52     
 BV BOUND     c53     
 BV BOUND     c54     
 BV BOUND     c55     
 BV BOUND     c56     
 BV BOUND     c57     
 BV BOUND     c58     
 BV BOUND     c59     
 BV BOUND     c60     
 BV BOUND     c61     
 BV BOUND     c62     
 BV BOUND     c63     
 BV BOUND     c64     
 BV BOUND     c65     
 BV BOUND     c66     
 BV BOUND     c67     
 BV BOUND     c68     
 BV BOUND     c69     
 BV BOUND     c70     
 BV BOUND     c71     
 BV BOUND     c72     
 BV BOUND     c73     
 BV BOUND     c74     
 BV BOUND     c75     
 BV BOUND     c76     
 BV BOUND     c77     
 BV BOUND     c78     
 BV BOUND     c79     
 BV BOUND     c80     
 BV BOUND     c81     
 BV BOUND     c82     
 BV BOUND     c83     
 BV BOUND     c84     
 BV BOUND     c85     
 BV BOUND     c86     
 BV BOUND     c87     
 BV BOUND     c88     
 BV BOUND     c89     
 BV BOUND     c90     
 BV BOUND     c91     
 BV BOUND     c92     
 BV BOUND     c93     
 BV BOUND     c94     
 BV BOUND     c95     
 BV BOUND     c96     
 BV BOUND     c97     
 BV BOUND     c98     
 BV BOUND     c99     
 BV BOUND     c100    
 BV BOUND     c101    
 BV BOUND     c102    
 BV BOUND     c103    
 BV BOUND     c104    
 BV BOUND     c105    
 BV BOUND     c106    
 BV BOUND     c107    
 BV BOUND     c108    
 BV BOUND     c109    
 BV BOUND     c110    
 BV BOUND     c111    
 BV BOUND     c112    
 BV BOUND     c113    
 BV BOUND     c114    
 BV BOUND     c115    
 BV BOUND     c116    
 BV BOUND     c117    
 BV BOUND     c118    
 BV BOUND     c119    
 BV BOUND     c120    
 BV BOUND     c121    
 BV BOUND     c122    
 BV BOUND     c123    
 BV BOUND     c124    
 BV BOUND     c125    
 BV BOUND     c126    
 BV BOUND     c127    
 BV BOUND     c128    
 BV BOUND     c129    
 BV BOUND     c130    
 BV BOUND     c131    
 BV BOUND     c132    
 BV BOUND     c133    
 BV BOUND     c134    
 BV BOUND     c135    
 BV BOUND     c136    
 BV BOUND     c137    
 BV BOUND     c138    
 BV BOUND     c139    
 BV BOUND     c140    
 BV BOUND     c141    
 BV BOUND     c142    
 BV BOUND     c143    
 BV BOUND     c144    
 BV BOUND     c145    
 BV BOUND     c146    
 BV BOUND     c147    
 BV BOUND     c148    
 BV BOUND     c149    
 BV BOUND     c150    
 BV BOUND     c151    
 BV BOUND     c152    
 BV BOUND     c153    
 BV BOUND     c154    
 BV BOUND     c155    
 BV BOUND     c156    
 BV BOUND     c157    
 BV BOUND     c158    
 BV BOUND     c159    
 BV BOUND     c160    
 BV BOUND     c161    
 BV BOUND     c162    
 BV BOUND     c163    
 BV BOUND     c164    
 BV BOUND     c165    
 BV BOUND     c166    
 BV BOUND     c167    
 BV BOUND     c168    
 BV BOUND     c169    
 BV BOUND     c170    
 BV BOUND     c171    
 BV BOUND     c172    
 BV BOUND     c173    
 BV BOUND     c174    
 BV BOUND     c175    
 BV BOUND     c176    
 BV BOUND     c177    
 BV BOUND     c178    
 BV BOUND     c179    
 BV BOUND     c180    
 BV BOUND     c181    
 BV BOUND     c182    
 BV BOUND     c183    
 BV BOUND     c184    
 BV BOUND     c185    
 BV BOUND     c186    
 BV BOUND     c187    
 BV BOUND     c188    
 BV BOUND     c189    
 BV BOUND     c190    
 BV BOUND     c191    
 BV BOUND     c192    
 BV BOUND     c193    
 BV BOUND     c194    
 BV BOUND     c195    
 BV BOUND     c196    
 BV BOUND     c197    
 BV BOUND     c198    
 BV BOUND     c199    
 BV BOUND     c200    
 BV BOUND     c201    
 BV BOUND     c202    
 BV BOUND     c203    
 BV BOUND     c204    
 BV BOUND     c205    
 BV BOUND     c206    
 BV BOUND     c207    
 BV BOUND     c208    
 BV BOUND     c209    
 BV BOUND     c210    
 BV BOUND     c211    
 BV BOUND     c212    
 BV BOUND     c213    
 BV BOUND     c214    
 BV BOUND     c215    
 BV BOUND     c216    
 BV BOUND     c217    
 BV BOUND     c218    
 BV BOUND     c219    
 BV BOUND     c220    
 BV BOUND     c221    
 BV BOUND     c222    
 BV BOUND     c223    
 BV BOUND     c224    
 BV BOUND     c225    
 BV BOUND     c226    
 BV BOUND     c227    
 BV BOUND     c228    
 BV BOUND     c229    
 BV BOUND     c230    
 BV BOUND     c231    
 BV BOUND     c232    
 BV BOUND     c233    
 BV BOUND     c234    
 BV BOUND     c235    
 BV BOUND     c236    
 BV BOUND     c237    
 BV BOUND     c238    
 BV BOUND     c239    
 BV BOUND     c240    
 BV BOUND     c241    
 BV BOUND     c242    
 BV BOUND     c243    
 BV BOUND     c244    
 BV BOUND     c245    
 BV BOUND     c246    
 BV BOUND     c247    
 BV BOUND     c248    
 BV BOUND     c249    
 BV BOUND     c250    
 BV BOUND     c251    
 BV BOUND     c252    
 BV BOUND     c253    
 BV BOUND     c254    
 BV BOUND     c255    
 BV BOUND     c256    
 BV BOUND     c257    
 BV BOUND     c258    
 BV BOUND     c259    
 BV BOUND     c260    
 BV BOUND     c261    
 BV BOUND     c262    
 BV BOUND     c263    
 BV BOUND     c264    
 BV BOUND     c265    
 BV BOUND     c266    
 BV BOUND     c267    
 BV BOUND     c268    
 BV BOUND     c269    
 BV BOUND     c270    
 BV BOUND     c271    
 BV BOUND     c272    
 BV BOUND     c273    
 BV BOUND     c274    
 BV BOUND     c275    
 BV BOUND     c276    
 BV BOUND     c277    
 BV BOUND     c278    
 BV BOUND     c279    
 BV BOUND     c280    
 BV BOUND     c281    
 BV BOUND     c282    
 BV BOUND     c283    
 BV BOUND     c284    
 BV BOUND     c285    
 BV BOUND     c286    
 BV BOUND     c287    
 BV BOUND     c288    
 BV BOUND     c289    
 BV BOUND     c290    
 BV BOUND     c291    
 BV BOUND     c292    
 BV BOUND     c293    
 BV BOUND     c294    
 BV BOUND     c295    
 BV BOUND     c296    
 BV BOUND     c297    
 BV BOUND     c298    
 BV BOUND     c299    
 BV BOUND     c300    
 BV BOUND     c301    
 BV BOUND     c302    
 BV BOUND     c303    
 BV BOUND     c304    
 BV BOUND     c305    
 BV BOUND     c306    
 BV BOUND     c307    
 BV BOUND     c308    
 BV BOUND     c309    
 BV BOUND     c310    
 BV BOUND     c311    
 BV BOUND     c312    
 BV BOUND     c313    
 BV BOUND     c314    
 BV BOUND     c315    
 BV BOUND     c316    
 BV BOUND     c317    
 BV BOUND     c318    
 BV BOUND     c319    
 BV BOUND     c320    
 BV BOUND     c321    
 BV BOUND     c322    
 BV BOUND     c323    
 BV BOUND     c324    
 BV BOUND     c325    
 BV BOUND     c326    
 BV BOUND     c327    
 BV BOUND     c328    
 BV BOUND     c329    
 BV BOUND     c330    
 BV BOUND     c331    
 BV BOUND     c332    
 BV BOUND     c333    
 BV BOUND     c334    
 BV BOUND     c335    
 BV BOUND     c336    
 BV BOUND     c337    
 BV BOUND     c338    
 BV BOUND     c339    
 BV BOUND     c340    
 BV BOUND     c341    
 BV BOUND     c342    
 BV BOUND     c343    
 BV BOUND     c344    
 BV BOUND     c345    
 BV BOUND     c346    
 BV BOUND     c347    
 BV BOUND     c348    
 BV BOUND     c349    
 BV BOUND     c350    
 BV BOUND     c351    
 BV BOUND     c352    
 BV BOUND     c353    
 BV BOUND     c354    
 BV BOUND     c355    
 BV BOUND     c356    
 BV BOUND     c357    
 BV BOUND     c358    
 BV BOUND     c359    
 BV BOUND     c360    
 BV BOUND     c361    
 BV BOUND     c362    
 BV BOUND     c363    
 BV BOUND     c364    
 BV BOUND     c365    
 BV BOUND     c366    
 BV BOUND     c367    
 BV BOUND     c368    
 BV BOUND     c369    
 BV BOUND     c370    
 BV BOUND     c371    
 BV BOUND     c372    
 BV BOUND     c373    
 BV BOUND     c374    
 BV BOUND     c375    
 BV BOUND     c376    
 BV BOUND     c377    
 BV BOUND     c378    
 BV BOUND     c379    
 BV BOUND     c380    
 BV BOUND     c381    
 BV BOUND     c382    
 BV BOUND     c383    
 BV BOUND     c384    
 BV BOUND     c385    
 BV BOUND     c386    
 BV BOUND     c387    
 BV BOUND     c388    
 BV BOUND     c389    
 BV BOUND     c390    
 BV BOUND     c391    
 BV BOUND     c392    
 BV BOUND     c393    
 BV BOUND     c394    
 BV BOUND     c395    
 BV BOUND     c396    
 BV BOUND     c397    
 BV BOUND     c398    
 BV BOUND     c399    
 BV BOUND     c400    
 BV BOUND     c401    
 BV BOUND     c402    
 BV BOUND     c403    
 BV BOUND     c404    
 BV BOUND     c405    
 BV BOUND     c406    
 BV BOUND     c407    
 BV BOUND     c408    
 BV BOUND     c409    
 BV BOUND     c410    
 BV BOUND     c411    
 BV BOUND     c412    
 BV BOUND     c413    
 BV BOUND     c414    
 BV BOUND     c415    
 BV BOUND     c416    
 BV BOUND     c417    
 BV BOUND     c418    
 BV BOUND     c419    
 BV BOUND     c420    
 BV BOUND     c421    
 BV BOUND     c422    
 BV BOUND     c423    
 BV BOUND     c424    
 BV BOUND     c425    
 BV BOUND     c426    
 BV BOUND     c427    
 BV BOUND     c428    
 BV BOUND     c429    
 BV BOUND     c430    
 BV BOUND     c431    
 BV BOUND     c432    
 BV BOUND     c433    
 BV BOUND     c434    
 BV BOUND     c435    
 BV BOUND     c436    
 BV BOUND     c437    
 BV BOUND     c438    
 BV BOUND     c439    
 BV BOUND     c440    
 BV BOUND     c441    
 BV BOUND     c442    
 BV BOUND     c443    
 BV BOUND     c444    
 BV BOUND     c445    
 BV BOUND     c446    
 BV BOUND     c447    
 BV BOUND     c448    
 BV BOUND     c449    
 BV BOUND     c450    
 BV BOUND     c451    
 BV BOUND     c452    
 BV BOUND     c453    
 BV BOUND     c454    
 BV BOUND     c455    
 BV BOUND     c456    
 BV BOUND     c457    
 BV BOUND     c458    
 BV BOUND     c459    
 BV BOUND     c460    
 BV BOUND     c461    
 BV BOUND     c462    
 BV BOUND     c463    
 BV BOUND     c464    
 BV BOUND     c465    
 BV BOUND     c466    
 BV BOUND     c467    
 BV BOUND     c468    
 BV BOUND     c469    
 BV BOUND     c470    
 BV BOUND     c471    
 BV BOUND     c472    
 BV BOUND     c473    
 BV BOUND     c474    
 BV BOUND     c475    
 BV BOUND     c476    
 BV BOUND     c477    
 BV BOUND     c478    
 BV BOUND     c479    
 BV BOUND     c480    
 BV BOUND     c481    
 BV BOUND     c482    
 BV BOUND     c483    
 BV BOUND     c484    
 BV BOUND     c485    
 BV BOUND     c486    
 BV BOUND     c487    
 BV BOUND     c488    
 BV BOUND     c489    
 BV BOUND     c490    
 BV BOUND     c491    
 BV BOUND     c492    
 BV BOUND     c493    
 BV BOUND     c494    
 BV BOUND     c495    
 BV BOUND     c496    
 BV BOUND     c497    
 BV BOUND     c498    
 BV BOUND     c499    
 BV BOUND     c500    
 BV BOUND     c501    
 BV BOUND     c502    
 BV BOUND     c503    
 BV BOUND     c504    
 BV BOUND     c505    
 BV BOUND     c506    
 BV BOUND     c507    
 BV BOUND     c508    
 BV BOUND     c509    
 BV BOUND     c510    
 BV BOUND     c511    
 BV BOUND     c512    
 BV BOUND     c513    
 BV BOUND     c514    
 BV BOUND     c515    
 BV BOUND     c516    
 BV BOUND     c517    
 BV BOUND     c518    
 BV BOUND     c519    
 BV BOUND     c520    
 BV BOUND     c521    
 BV BOUND     c522    
 BV BOUND     c523    
 BV BOUND     c524    
 BV BOUND     c525    
 BV BOUND     c526    
 BV BOUND     c527    
 BV BOUND     c528    
 BV BOUND     c529    
 BV BOUND     c530    
 BV BOUND     c531    
 BV BOUND     c532    
 BV BOUND     c533    
 BV BOUND     c534    
 BV BOUND     c535    
 BV BOUND     c536    
 BV BOUND     c537    
 BV BOUND     c538    
 BV BOUND     c539    
 BV BOUND     c540    
 BV BOUND     c541    
 BV BOUND     c542    
 BV BOUND     c543    
 BV BOUND     c544    
 BV BOUND     c545    
 BV BOUND     c546    
 BV BOUND     c547    
 BV BOUND     c548    
 BV BOUND     c549    
 BV BOUND     c550    
 BV BOUND     c551    
 BV BOUND     c552    
 BV BOUND     c553    
 BV BOUND     c554    
 BV BOUND     c555    
 BV BOUND     c556    
 BV BOUND     c557    
 BV BOUND     c558    
 BV BOUND     c559    
 BV BOUND     c560    
 BV BOUND     c561    
 BV BOUND     c562    
 BV BOUND     c563    
 BV BOUND     c564    
 BV BOUND     c565    
 BV BOUND     c566    
 BV BOUND     c567    
 BV BOUND     c568    
 BV BOUND     c569    
 BV BOUND     c570    
 BV BOUND     c571    
 BV BOUND     c572    
 BV BOUND     c573    
 BV BOUND     c574    
 BV BOUND     c575    
 BV BOUND     c576    
 BV BOUND     c577    
 BV BOUND     c578    
 BV BOUND     c579    
 BV BOUND     c580    
 BV BOUND     c581    
 BV BOUND     c582    
 BV BOUND     c583    
 BV BOUND     c584    
 BV BOUND     c585    
 BV BOUND     c586    
 BV BOUND     c587    
 BV BOUND     c588    
 BV BOUND     c589    
 BV BOUND     c590    
 BV BOUND     c591    
 BV BOUND     c592    
 BV BOUND     c593    
 BV BOUND     c594    
 BV BOUND     c595    
 BV BOUND     c596    
 BV BOUND     c597    
 BV BOUND     c598    
 BV BOUND     c599    
 BV BOUND     c600    
 BV BOUND     c601    
 BV BOUND     c602    
 BV BOUND     c603    
 BV BOUND     c604    
 BV BOUND     c605    
 BV BOUND     c606    
 BV BOUND     c607    
 BV BOUND     c608    
 BV BOUND     c609    
 BV BOUND     c610    
 BV BOUND     c611    
 BV BOUND     c612    
 BV BOUND     c613    
 BV BOUND     c614    
 BV BOUND     c615    
 BV BOUND     c616    
 BV BOUND     c617    
 BV BOUND     c618    
 BV BOUND     c619    
 BV BOUND     c620    
 BV BOUND     c621    
 BV BOUND     c622    
 BV BOUND     c623    
 BV BOUND     c624    
 BV BOUND     c625    
 BV BOUND     c626    
 BV BOUND     c627    
 BV BOUND     c628    
 BV BOUND     c629    
 BV BOUND     c630    
 BV BOUND     c631    
 BV BOUND     c632    
 BV BOUND     c633    
 BV BOUND     c634    
 BV BOUND     c635    
 BV BOUND     c636    
 BV BOUND     c637    
 BV BOUND     c638    
 BV BOUND     c639    
 BV BOUND     c640    
 BV BOUND     c641    
 BV BOUND     c642    
 BV BOUND     c643    
 BV BOUND     c644    
 BV BOUND     c645    
 BV BOUND     c646    
 BV BOUND     c647    
 BV BOUND     c648    
 BV BOUND     c649    
 BV BOUND     c650    
 BV BOUND     c651    
 BV BOUND     c652    
 BV BOUND     c653    
 BV BOUND     c654    
 BV BOUND     c655    
 BV BOUND     c656    
 BV BOUND     c657    
 BV BOUND     c658    
 BV BOUND     c659    
 BV BOUND     c660    
 BV BOUND     c661    
 BV BOUND     c662    
 BV BOUND     c663    
 BV BOUND     c664    
 BV BOUND     c665    
 BV BOUND     c666    
 BV BOUND     c667    
 BV BOUND     c668    
 BV BOUND     c669    
 BV BOUND     c670    
 BV BOUND     c671    
 BV BOUND     c672    
 BV BOUND     c673    
 BV BOUND     c674    
 BV BOUND     c675    
 BV BOUND     c676    
 BV BOUND     c677    
 BV BOUND     c678    
 BV BOUND     c679    
 BV BOUND     c680    
 BV BOUND     c681    
 BV BOUND     c682    
 BV BOUND     c683    
 BV BOUND     c684    
 BV BOUND     c685    
 BV BOUND     c686    
 BV BOUND     c687    
 BV BOUND     c688    
 BV BOUND     c689    
 BV BOUND     c690    
 BV BOUND     c691    
 BV BOUND     c692    
 BV BOUND     c693    
 BV BOUND     c694    
 BV BOUND     c695    
 BV BOUND     c696    
 BV BOUND     c697    
 BV BOUND     c698    
 BV BOUND     c699    
 BV BOUND     c700    
 BV BOUND     c701    
 BV BOUND     c702    
 BV BOUND     c703    
 BV BOUND     c704    
 BV BOUND     c705    
 BV BOUND     c706    
 BV BOUND     c707    
 BV BOUND     c708    
 BV BOUND     c709    
 BV BOUND     c710    
 BV BOUND     c711    
 BV BOUND     c712    
 BV BOUND     c713    
 BV BOUND     c714    
 BV BOUND     c715    
 BV BOUND     c716    
 BV BOUND     c717    
 BV BOUND     c718    
 BV BOUND     c719    
 BV BOUND     c720    
 BV BOUND     c721    
 BV BOUND     c722    
 BV BOUND     c723    
 BV BOUND     c724    
 BV BOUND     c725    
 BV BOUND     c726    
 BV BOUND     c727    
 BV BOUND     c728    
 BV BOUND     c729    
 BV BOUND     c730    
 BV BOUND     c731    
 BV BOUND     c732    
 BV BOUND     c733    
 BV BOUND     c734    
 BV BOUND     c735    
 BV BOUND     c736    
 BV BOUND     c737    
 BV BOUND     c738    
 BV BOUND     c739    
 BV BOUND     c740    
 BV BOUND     c741    
 BV BOUND     c742    
 BV BOUND     c743    
 BV BOUND     c744    
 BV BOUND     c745    
 BV BOUND     c746    
 BV BOUND     c747    
 BV BOUND     c748    
 BV BOUND     c749    
 BV BOUND     c750    
 BV BOUND     c751    
 BV BOUND     c752    
 BV BOUND     c753    
 BV BOUND     c754    
 BV BOUND     c755    
 BV BOUND     c756    
 BV BOUND     c757    
 BV BOUND     c758    
 BV BOUND     c759    
 BV BOUND     c760    
 BV BOUND     c761    
 BV BOUND     c762    
 BV BOUND     c763    
 BV BOUND     c764    
 BV BOUND     c765    
 BV BOUND     c766    
 BV BOUND     c767    
 BV BOUND     c768    
 BV BOUND     c769    
 BV BOUND     c770    
 BV BOUND     c771    
 BV BOUND     c772    
 BV BOUND     c773    
 BV BOUND     c774    
 BV BOUND     c775    
 BV BOUND     c776    
 BV BOUND     c777    
 BV BOUND     c778    
 BV BOUND     c779    
 BV BOUND     c780    
 BV BOUND     c781    
 BV BOUND     c782    
 BV BOUND     c783    
 BV BOUND     c784    
 BV BOUND     c785    
 BV BOUND     c786    
 BV BOUND     c787    
 BV BOUND     c788    
 BV BOUND     c789    
 BV BOUND     c790    
 BV BOUND     c791    
 BV BOUND     c792    
 BV BOUND     c793    
 BV BOUND     c794    
 BV BOUND     c795    
 BV BOUND     c796    
 BV BOUND     c797    
 BV BOUND     c798    
 BV BOUND     c799    
 BV BOUND     c800    
 BV BOUND     c801    
 BV BOUND     c802    
 BV BOUND     c803    
 BV BOUND     c804    
 BV BOUND     c805    
 BV BOUND     c806    
 BV BOUND     c807    
 BV BOUND     c808    
 BV BOUND     c809    
 BV BOUND     c810    
 BV BOUND     c811    
 BV BOUND     c812    
 BV BOUND     c813    
 BV BOUND     c814    
 BV BOUND     c815    
 BV BOUND     c816    
 BV BOUND     c817    
 BV BOUND     c818    
 BV BOUND     c819    
 BV BOUND     c820    
 BV BOUND     c821    
 BV BOUND     c822    
 BV BOUND     c823    
 BV BOUND     c824    
 BV BOUND     c825    
 BV BOUND     c826    
 BV BOUND     c827    
 BV BOUND     c828    
 BV BOUND     c829    
 BV BOUND     c830    
 BV BOUND     c831    
 BV BOUND     c832    
 BV BOUND     c833    
 BV BOUND     c834    
 BV BOUND     c835    
 BV BOUND     c836    
 BV BOUND     c837    
 BV BOUND     c838    
 BV BOUND     c839    
 BV BOUND     c840    
 BV BOUND     c841    
 BV BOUND     c842    
 BV BOUND     c843    
 BV BOUND     c844    
 BV BOUND     c845    
 BV BOUND     c846    
 BV BOUND     c847    
 BV BOUND     c848    
 BV BOUND     c849    
 BV BOUND     c850    
 BV BOUND     c851    
 BV BOUND     c852    
 BV BOUND     c853    
 BV BOUND     c854    
 BV BOUND     c855    
 BV BOUND     c856    
 BV BOUND     c857    
 BV BOUND     c858    
 BV BOUND     c859    
 BV BOUND     c860    
 BV BOUND     c861    
 BV BOUND     c862    
 BV BOUND     c863    
 BV BOUND     c864    
 BV BOUND     c865    
 BV BOUND     c866    
 BV BOUND     c867    
 BV BOUND     c868    
 BV BOUND     c869    
 BV BOUND     c870    
 BV BOUND     c871    
 BV BOUND     c872    
 BV BOUND     c873    
 BV BOUND     c874    
 BV BOUND     c875    
 BV BOUND     c876    
 BV BOUND     c877    
 BV BOUND     c878    
 BV BOUND     c879    
 BV BOUND     c880    
 BV BOUND     c881    
 BV BOUND     c882    
 BV BOUND     c883    
 BV BOUND     c884    
 BV BOUND     c885    
 BV BOUND     c886    
 BV BOUND     c887    
 BV BOUND     c888    
 BV BOUND     c889    
 BV BOUND     c890    
 BV BOUND     c891    
 BV BOUND     c892    
 BV BOUND     c893    
 BV BOUND     c894    
 BV BOUND     c895    
 BV BOUND     c896    
 BV BOUND     c897    
 BV BOUND     c898    
 BV BOUND     c899    
 BV BOUND     c900    
 BV BOUND     c901    
 BV BOUND     c902    
 BV BOUND     c903    
 BV BOUND     c904    
 BV BOUND     c905    
 BV BOUND     c906    
 BV BOUND     c907    
 BV BOUND     c908    
 BV BOUND     c909    
 BV BOUND     c910    
 BV BOUND     c911    
 BV BOUND     c912    
 BV BOUND     c913    
 BV BOUND     c914    
 BV BOUND     c915    
 BV BOUND     c916    
 BV BOUND     c917    
 BV BOUND     c918    
 BV BOUND     c919    
 BV BOUND     c920    
 BV BOUND     c921    
 BV BOUND     c922    
 BV BOUND     c923    
 BV BOUND     c924    
 BV BOUND     c925    
 BV BOUND     c926    
 BV BOUND     c927    
 BV BOUND     c928    
 BV BOUND     c929    
 BV BOUND     c930    
 BV BOUND     c931    
 BV BOUND     c932    
 BV BOUND     c933    
 BV BOUND     c934    
 BV BOUND     c935    
 BV BOUND     c936    
 BV BOUND     c937    
 BV BOUND     c938    
 BV BOUND     c939    
 BV BOUND     c940    
 BV BOUND     c941    
 BV BOUND     c942    
 BV BOUND     c943    
 BV BOUND     c944    
 BV BOUND     c945    
 BV BOUND     c946    
 BV BOUND     c947    
 BV BOUND     c948    
 BV BOUND     c949    
 BV BOUND     c950    
 BV BOUND     c951    
 BV BOUND     c952    
 BV BOUND     c953    
 BV BOUND     c954    
 BV BOUND     c955    
 BV BOUND     c956    
 BV BOUND     c957    
 BV BOUND     c958    
 BV BOUND     c959    
 BV BOUND     c960    
 BV BOUND     c961    
 BV BOUND     c962    
 BV BOUND     c963    
 BV BOUND     c964    
 BV BOUND     c965    
 BV BOUND     c966    
 BV BOUND     c967    
 BV BOUND     c968    
 BV BOUND     c969    
 BV BOUND     c970    
 BV BOUND     c971    
 BV BOUND     c972    
 BV BOUND     c973    
 BV BOUND     c974    
 BV BOUND     c975    
 BV BOUND     c976    
 BV BOUND     c977    
 BV BOUND     c978    
 BV BOUND     c979    
 BV BOUND     c980    
 BV BOUND     c981    
 BV BOUND     c982    
 BV BOUND     c983    
 BV BOUND     c984    
 BV BOUND     c985    
 BV BOUND     c986    
 BV BOUND     c987    
 BV BOUND     c988    
 BV BOUND     c989    
 BV BOUND     c990    
 BV BOUND     c991    
 BV BOUND     c992    
 BV BOUND     c993    
 BV BOUND     c994    
 BV BOUND     c995    
 BV BOUND     c996    
 BV BOUND     c997    
 BV BOUND     c998    
 BV BOUND     c999    
 BV BOUND     c1000   
 BV BOUND     c1001   
 BV BOUND     c1002   
 BV BOUND     c1003   
 BV BOUND     c1004   
 BV BOUND     c1005   
 BV BOUND     c1006   
 BV BOUND     c1007   
 BV BOUND     c1008   
 BV BOUND     c1009   
 BV BOUND     c1010   
 BV BOUND     c1011   
 BV BOUND     c1012   
 BV BOUND     c1013   
 BV BOUND     c1014   
 BV BOUND     c1015   
 BV BOUND     c1016   
 BV BOUND     c1017   
 BV BOUND     c1018   
 BV BOUND     c1019   
 BV BOUND     c1020   
 BV BOUND     c1021   
 BV BOUND     c1022   
 BV BOUND     c1023   
 BV BOUND     c1024   
 BV BOUND     c1025   
 BV BOUND     c1026   
 BV BOUND     c1027   
 BV BOUND     c1028   
 BV BOUND     c1029   
 BV BOUND     c1030   
 BV BOUND     c1031   
 BV BOUND     c1032   
 BV BOUND     c1033   
 BV BOUND     c1034   
 BV BOUND     c1035   
 BV BOUND     c1036   
 BV BOUND     c1037   
 BV BOUND     c1038   
 BV BOUND     c1039   
 BV BOUND     c1040   
 BV BOUND     c1041   
 BV BOUND     c1042   
 BV BOUND     c1043   
 BV BOUND     c1044   
 BV BOUND     c1045   
 BV BOUND     c1046   
 BV BOUND     c1047   
 BV BOUND     c1048   
 BV BOUND     c1049   
 BV BOUND     c1050   
 BV BOUND     c1051   
 BV BOUND     c1052   
 BV BOUND     c1053   
 BV BOUND     c1054   
 BV BOUND     c1055   
 BV BOUND     c1056   
 BV BOUND     c1057   
 BV BOUND     c1058   
 BV BOUND     c1059   
 BV BOUND     c1060   
 BV BOUND     c1061   
 BV BOUND     c1062   
 BV BOUND     c1063   
 BV BOUND     c1064   
 BV BOUND     c1065   
 BV BOUND     c1066   
 BV BOUND     c1067   
 BV BOUND     c1068   
 BV BOUND     c1069   
 BV BOUND     c1070   
 BV BOUND     c1071   
 BV BOUND     c1072   
 BV BOUND     c1073   
 BV BOUND     c1074   
 BV BOUND     c1075   
 BV BOUND     c1076   
 BV BOUND     c1077   
 BV BOUND     c1078   
 BV BOUND     c1079   
 BV BOUND     c1080   
 BV BOUND     c1081   
 BV BOUND     c1082   
 BV BOUND     c1083   
 BV BOUND     c1084   
 BV BOUND     c1085   
 BV BOUND     c1086   
 BV BOUND     c1087   
 BV BOUND     c1088   
 BV BOUND     c1089   
 BV BOUND     c1090   
 BV BOUND     c1091   
 BV BOUND     c1092   
 BV BOUND     c1093   
 BV BOUND     c1094   
 BV BOUND     c1095   
 BV BOUND     c1096   
 BV BOUND     c1097   
 BV BOUND     c1098   
 BV BOUND     c1099   
 BV BOUND     c1100   
 BV BOUND     c1101   
 BV BOUND     c1102   
 BV BOUND     c1103   
 BV BOUND     c1104   
 BV BOUND     c1105   
 BV BOUND     c1106   
 BV BOUND     c1107   
 BV BOUND     c1108   
 BV BOUND     c1109   
 BV BOUND     c1110   
 BV BOUND     c1111   
 BV BOUND     c1112   
 BV BOUND     c1113   
 BV BOUND     c1114   
 BV BOUND     c1115   
 BV BOUND     c1116   
 BV BOUND     c1117   
 BV BOUND     c1118   
 BV BOUND     c1119   
 BV BOUND     c1120   
 BV BOUND     c1121   
 BV BOUND     c1122   
 BV BOUND     c1123   
 BV BOUND     c1124   
 BV BOUND     c1125   
 BV BOUND     c1126   
 BV BOUND     c1127   
 BV BOUND     c1128   
 BV BOUND     c1129   
 BV BOUND     c1130   
 BV BOUND     c1131   
 BV BOUND     c1132   
 BV BOUND     c1133   
 BV BOUND     c1134   
 BV BOUND     c1135   
 BV BOUND     c1136   
 BV BOUND     c1137   
 BV BOUND     c1138   
 BV BOUND     c1139   
 BV BOUND     c1140   
 BV BOUND     c1141   
 BV BOUND     c1142   
 BV BOUND     c1143   
 BV BOUND     c1144   
 BV BOUND     c1145   
 BV BOUND     c1146   
 BV BOUND     c1147   
 BV BOUND     c1148   
 BV BOUND     c1149   
 BV BOUND     c1150   
 BV BOUND     c1151   
 BV BOUND     c1152   
 BV BOUND     c1153   
 BV BOUND     c1154   
 BV BOUND     c1155   
 BV BOUND     c1156   
 BV BOUND     c1157   
 BV BOUND     c1158   
 BV BOUND     c1159   
 BV BOUND     c1160   
 BV BOUND     c1161   
 BV BOUND     c1162   
 BV BOUND     c1163   
 BV BOUND     c1164   
 BV BOUND     c1165   
 BV BOUND     c1166   
 BV BOUND     c1167   
 BV BOUND     c1168   
 BV BOUND     c1169   
 BV BOUND     c1170   
 BV BOUND     c1171   
 BV BOUND     c1172   
 BV BOUND     c1173   
 BV BOUND     c1174   
 BV BOUND     c1175   
 BV BOUND     c1176   
 BV BOUND     c1177   
 BV BOUND     c1178   
 BV BOUND     c1179   
 BV BOUND     c1180   
 BV BOUND     c1181   
 BV BOUND     c1182   
 BV BOUND     c1183   
 BV BOUND     c1184   
 BV BOUND     c1185   
 BV BOUND     c1186   
 BV BOUND     c1187   
 BV BOUND     c1188   
 BV BOUND     c1189   
 BV BOUND     c1190   
 BV BOUND     c1191   
 BV BOUND     c1192   
 BV BOUND     c1193   
 BV BOUND     c1194   
 BV BOUND     c1195   
 BV BOUND     c1196   
 BV BOUND     c1197   
 BV BOUND     c1198   
 BV BOUND     c1199   
 BV BOUND     c1200   
 BV BOUND     c1201   
 BV BOUND     c1202   
 BV BOUND     c1203   
 BV BOUND     c1204   
 BV BOUND     c1205   
 BV BOUND     c1206   
 BV BOUND     c1207   
 BV BOUND     c1208   
 BV BOUND     c1209   
 BV BOUND     c1210   
 BV BOUND     c1211   
 BV BOUND     c1212   
 BV BOUND     c1213   
 BV BOUND     c1214   
 BV BOUND     c1215   
 BV BOUND     c1216   
 BV BOUND     c1217   
 BV BOUND     c1218   
 BV BOUND     c1219   
 BV BOUND     c1220   
 BV BOUND     c1221   
 BV BOUND     c1222   
 BV BOUND     c1223   
 BV BOUND     c1224   
 BV BOUND     c1225   
 BV BOUND     c1226   
 BV BOUND     c1227   
 BV BOUND     c1228   
 BV BOUND     c1229   
 BV BOUND     c1230   
 BV BOUND     c1231   
 BV BOUND     c1232   
 BV BOUND     c1233   
 BV BOUND     c1234   
 BV BOUND     c1235   
 BV BOUND     c1236   
 BV BOUND     c1237   
 BV BOUND     c1238   
 BV BOUND     c1239   
 BV BOUND     c1240   
 BV BOUND     c1241   
 BV BOUND     c1242   
 BV BOUND     c1243   
 BV BOUND     c1244   
 BV BOUND     c1245   
 BV BOUND     c1246   
 BV BOUND     c1247   
 BV BOUND     c1248   
 BV BOUND     c1249   
 BV BOUND     c1250   
 BV BOUND     c1251   
 BV BOUND     c1252   
 BV BOUND     c1253   
 BV BOUND     c1254   
 BV BOUND     c1255   
 BV BOUND     c1256   
 BV BOUND     c1257   
 BV BOUND     c1258   
 BV BOUND     c1259   
 BV BOUND     c1260   
 BV BOUND     c1261   
 BV BOUND     c1262   
 BV BOUND     c1263   
 BV BOUND     c1264   
 BV BOUND     c1265   
 BV BOUND     c1266   
 BV BOUND     c1267   
 BV BOUND     c1268   
 BV BOUND     c1269   
 BV BOUND     c1270   
 BV BOUND     c1271   
 BV BOUND     c1272   
 BV BOUND     c1273   
 BV BOUND     c1274   
 BV BOUND     c1275   
 BV BOUND     c1276   
 BV BOUND     c1277   
 BV BOUND     c1278   
 BV BOUND     c1279   
 BV BOUND     c1280   
 BV BOUND     c1281   
 BV BOUND     c1282   
 BV BOUND     c1283   
 BV BOUND     c1284   
 BV BOUND     c1285   
 BV BOUND     c1286   
 BV BOUND     c1287   
 BV BOUND     c1288   
 BV BOUND     c1289   
 BV BOUND     c1290   
 BV BOUND     c1291   
 BV BOUND     c1292   
 BV BOUND     c1293   
 BV BOUND     c1294   
 BV BOUND     c1295   
 BV BOUND     c1296   
 BV BOUND     c1297   
 BV BOUND     c1298   
 BV BOUND     c1299   
 BV BOUND     c1300   
 BV BOUND     c1301   
 BV BOUND     c1302   
 BV BOUND     c1303   
 BV BOUND     c1304   
 BV BOUND     c1305   
 BV BOUND     c1306   
 BV BOUND     c1307   
 BV BOUND     c1308   
 BV BOUND     c1309   
 BV BOUND     c1310   
 BV BOUND     c1311   
 BV BOUND     c1312   
 BV BOUND     c1313   
 BV BOUND     c1314   
 BV BOUND     c1315   
 BV BOUND     c1316   
 BV BOUND     c1317   
 BV BOUND     c1318   
 BV BOUND     c1319   
 BV BOUND     c1320   
 BV BOUND     c1321   
 BV BOUND     c1322   
 BV BOUND     c1323   
 BV BOUND     c1324   
 BV BOUND     c1325   
 BV BOUND     c1326   
 BV BOUND     c1327   
 BV BOUND     c1328   
 BV BOUND     c1329   
 BV BOUND     c1330   
 BV BOUND     c1331   
 BV BOUND     c1332   
 BV BOUND     c1333   
 BV BOUND     c1334   
 BV BOUND     c1335   
 BV BOUND     c1336   
 BV BOUND     c1337   
 BV BOUND     c1338   
 BV BOUND     c1339   
 BV BOUND     c1340   
 BV BOUND     c1341   
 BV BOUND     c1342   
 BV BOUND     c1343   
 BV BOUND     c1344   
 BV BOUND     c1345   
 BV BOUND     c1346   
 BV BOUND     c1347   
 BV BOUND     c1348   
 BV BOUND     c1349   
 BV BOUND     c1350   
 BV BOUND     c1351   
 BV BOUND     c1352   
 BV BOUND     c1353   
 BV BOUND     c1354   
 BV BOUND     c1355   
 BV BOUND     c1356   
 BV BOUND     c1357   
 BV BOUND     c1358   
 BV BOUND     c1359   
 BV BOUND     c1360   
 BV BOUND     c1361   
 BV BOUND     c1362   
 BV BOUND     c1363   
 BV BOUND     c1364   
 BV BOUND     c1365   
 BV BOUND     c1366   
 BV BOUND     c1367   
 BV BOUND     c1368   
 BV BOUND     c1369   
 BV BOUND     c1370   
 BV BOUND     c1371   
 BV BOUND     c1372   
 BV BOUND     c1373   
 BV BOUND     c1374   
 BV BOUND     c1375   
 BV BOUND     c1376   
 BV BOUND     c1377   
 BV BOUND     c1378   
 BV BOUND     c1379   
 BV BOUND     c1380   
 BV BOUND     c1381   
 BV BOUND     c1382   
 BV BOUND     c1383   
 BV BOUND     c1384   
 BV BOUND     c1385   
 BV BOUND     c1386   
 BV BOUND     c1387   
 BV BOUND     c1388   
 BV BOUND     c1389   
 BV BOUND     c1390   
 BV BOUND     c1391   
 BV BOUND     c1392   
 BV BOUND     c1393   
 BV BOUND     c1394   
 BV BOUND     c1395   
 BV BOUND     c1396   
 BV BOUND     c1397   
 BV BOUND     c1398   
 BV BOUND     c1399   
 BV BOUND     c1400   
 BV BOUND     c1401   
 BV BOUND     c1402   
 BV BOUND     c1403   
 BV BOUND     c1404   
 BV BOUND     c1405   
 BV BOUND     c1406   
 BV BOUND     c1407   
 BV BOUND     c1408   
 BV BOUND     c1409   
 BV BOUND     c1410   
 BV BOUND     c1411   
 BV BOUND     c1412   
 BV BOUND     c1413   
 BV BOUND     c1414   
 BV BOUND     c1415   
 BV BOUND     c1416   
 BV BOUND     c1417   
 BV BOUND     c1418   
 BV BOUND     c1419   
 BV BOUND     c1420   
 BV BOUND     c1421   
 BV BOUND     c1422   
 BV BOUND     c1423   
 BV BOUND     c1424   
 BV BOUND     c1425   
 BV BOUND     c1426   
 BV BOUND     c1427   
 BV BOUND     c1428   
 BV BOUND     c1429   
 BV BOUND     c1430   
 BV BOUND     c1431   
 BV BOUND     c1432   
 BV BOUND     c1433   
 BV BOUND     c1434   
 BV BOUND     c1435   
 BV BOUND     c1436   
 BV BOUND     c1437   
 BV BOUND     c1438   
 BV BOUND     c1439   
 BV BOUND     c1440   
 BV BOUND     c1441   
 BV BOUND     c1442   
 BV BOUND     c1443   
 BV BOUND     c1444   
 BV BOUND     c1445   
 BV BOUND     c1446   
 BV BOUND     c1447   
 BV BOUND     c1448   
 BV BOUND     c1449   
 BV BOUND     c1450   
 BV BOUND     c1451   
 BV BOUND     c1452   
 BV BOUND     c1453   
 BV BOUND     c1454   
 BV BOUND     c1455   
 BV BOUND     c1456   
 BV BOUND     c1457   
 BV BOUND     c1458   
 BV BOUND     c1459   
 BV BOUND     c1460   
 BV BOUND     c1461   
 BV BOUND     c1462   
 BV BOUND     c1463   
 BV BOUND     c1464   
 BV BOUND     c1465   
 BV BOUND     c1466   
 BV BOUND     c1467   
 BV BOUND     c1468   
 BV BOUND     c1469   
 BV BOUND     c1470   
 BV BOUND     c1471   
 BV BOUND     c1472   
 BV BOUND     c1473   
 BV BOUND     c1474   
 BV BOUND     c1475   
 BV BOUND     c1476   
 BV BOUND     c1477   
 BV BOUND     c1478   
 BV BOUND     c1479   
 BV BOUND     c1480   
 BV BOUND     c1481   
 BV BOUND     c1482   
 BV BOUND     c1483   
 BV BOUND     c1484   
 BV BOUND     c1485   
 BV BOUND     c1486   
 BV BOUND     c1487   
 BV BOUND     c1488   
 BV BOUND     c1489   
 BV BOUND     c1490   
 BV BOUND     c1491   
 BV BOUND     c1492   
 BV BOUND     c1493   
 BV BOUND     c1494   
 BV BOUND     c1495   
 BV BOUND     c1496   
 BV BOUND     c1497   
 BV BOUND     c1498   
 BV BOUND     c1499   
 BV BOUND     c1500   
 BV BOUND     c1501   
 BV BOUND     c1502   
 BV BOUND     c1503   
 BV BOUND     c1504   
 BV BOUND     c1505   
 BV BOUND     c1506   
 BV BOUND     c1507   
 BV BOUND     c1508   
 BV BOUND     c1509   
 BV BOUND     c1510   
 BV BOUND     c1511   
 BV BOUND     c1512   
 BV BOUND     c1513   
 BV BOUND     c1514   
 BV BOUND     c1515   
 BV BOUND     c1516   
 BV BOUND     c1517   
 BV BOUND     c1518   
 BV BOUND     c1519   
 BV BOUND     c1520   
 BV BOUND     c1521   
 BV BOUND     c1522   
 BV BOUND     c1523   
 BV BOUND     c1524   
 BV BOUND     c1525   
 BV BOUND     c1526   
 BV BOUND     c1527   
 BV BOUND     c1528   
 BV BOUND     c1529   
 BV BOUND     c1530   
 BV BOUND     c1531   
 BV BOUND     c1532   
 BV BOUND     c1533   
 BV BOUND     c1534   
 BV BOUND     c1535   
 BV BOUND     c1536   
 BV BOUND     c1537   
 BV BOUND     c1538   
 BV BOUND     c1539   
 BV BOUND     c1540   
 BV BOUND     c1541   
 BV BOUND     c1542   
 BV BOUND     c1543   
 BV BOUND     c1544   
 BV BOUND     c1545   
 BV BOUND     c1546   
 BV BOUND     c1547   
 BV BOUND     c1548   
 BV BOUND     c1549   
 BV BOUND     c1550   
 BV BOUND     c1551   
 BV BOUND     c1552   
 BV BOUND     c1553   
 BV BOUND     c1554   
 BV BOUND     c1555   
 BV BOUND     c1556   
 BV BOUND     c1557   
 BV BOUND     c1558   
 BV BOUND     c1559   
 BV BOUND     c1560   
 BV BOUND     c1561   
 BV BOUND     c1562   
 BV BOUND     c1563   
 BV BOUND     c1564   
 BV BOUND     c1565   
 BV BOUND     c1566   
 BV BOUND     c1567   
 BV BOUND     c1568   
 BV BOUND     c1569   
 BV BOUND     c1570   
 BV BOUND     c1571   
 BV BOUND     c1572   
 BV BOUND     c1573   
 BV BOUND     c1574   
 BV BOUND     c1575   
 BV BOUND     c1576   
 BV BOUND     c1577   
 BV BOUND     c1578   
 BV BOUND     c1579   
 BV BOUND     c1580   
 BV BOUND     c1581   
 BV BOUND     c1582   
 BV BOUND     c1583   
 BV BOUND     c1584   
 BV BOUND     c1585   
 BV BOUND     c1586   
 BV BOUND     c1587   
 BV BOUND     c1588   
 BV BOUND     c1589   
 BV BOUND     c1590   
 BV BOUND     c1591   
 BV BOUND     c1592   
 BV BOUND     c1593   
 BV BOUND     c1594   
 BV BOUND     c1595   
 BV BOUND     c1596   
 BV BOUND     c1597   
 BV BOUND     c1598   
 BV BOUND     c1599   
 BV BOUND     c1600   
 BV BOUND     c1601   
 BV BOUND     c1602   
 BV BOUND     c1603   
 BV BOUND     c1604   
 BV BOUND     c1605   
 BV BOUND     c1606   
 BV BOUND     c1607   
 BV BOUND     c1608   
 BV BOUND     c1609   
 BV BOUND     c1610   
 BV BOUND     c1611   
 BV BOUND     c1612   
 BV BOUND     c1613   
 BV BOUND     c1614   
 BV BOUND     c1615   
 BV BOUND     c1616   
 BV BOUND     c1617   
 BV BOUND     c1618   
 BV BOUND     c1619   
 BV BOUND     c1620   
 BV BOUND     c1621   
 BV BOUND     c1622   
 BV BOUND     c1623   
 BV BOUND     c1624   
 BV BOUND     c1625   
 BV BOUND     c1626   
 BV BOUND     c1627   
 BV BOUND     c1628   
 BV BOUND     c1629   
 BV BOUND     c1630   
 BV BOUND     c1631   
 BV BOUND     c1632   
 BV BOUND     c1633   
 BV BOUND     c1634   
 BV BOUND     c1635   
 BV BOUND     c1636   
 BV BOUND     c1637   
 BV BOUND     c1638   
 BV BOUND     c1639   
 BV BOUND     c1640   
 BV BOUND     c1641   
 BV BOUND     c1642   
 BV BOUND     c1643   
 BV BOUND     c1644   
 BV BOUND     c1645   
 BV BOUND     c1646   
 BV BOUND     c1647   
 BV BOUND     c1648   
 BV BOUND     c1649   
 BV BOUND     c1650   
 BV BOUND     c1651   
 BV BOUND     c1652   
 BV BOUND     c1653   
 BV BOUND     c1654   
 BV BOUND     c1655   
 BV BOUND     c1656   
 BV BOUND     c1657   
 BV BOUND     c1658   
 BV BOUND     c1659   
 BV BOUND     c1660   
 BV BOUND     c1661   
 BV BOUND     c1662   
 BV BOUND     c1663   
 BV BOUND     c1664   
 BV BOUND     c1665   
 BV BOUND     c1666   
 BV BOUND     c1667   
 BV BOUND     c1668   
 BV BOUND     c1669   
 BV BOUND     c1670   
 BV BOUND     c1671   
 BV BOUND     c1672   
 BV BOUND     c1673   
 BV BOUND     c1674   
 BV BOUND     c1675   
 BV BOUND     c1676   
 BV BOUND     c1677   
 BV BOUND     c1678   
 BV BOUND     c1679   
 BV BOUND     c1680   
 BV BOUND     c1681   
 BV BOUND     c1682   
 BV BOUND     c1683   
 BV BOUND     c1684   
 BV BOUND     c1685   
 BV BOUND     c1686   
 BV BOUND     c1687   
 BV BOUND     c1688   
 BV BOUND     c1689   
 BV BOUND     c1690   
 BV BOUND     c1691   
 BV BOUND     c1692   
 BV BOUND     c1693   
 BV BOUND     c1694   
 BV BOUND     c1695   
 BV BOUND     c1696   
 BV BOUND     c1697   
 BV BOUND     c1698   
 BV BOUND     c1699   
 BV BOUND     c1700   
 BV BOUND     c1701   
 BV BOUND     c1702   
 BV BOUND     c1703   
 BV BOUND     c1704   
 BV BOUND     c1705   
 BV BOUND     c1706   
 BV BOUND     c1707   
 BV BOUND     c1708   
 BV BOUND     c1709   
 BV BOUND     c1710   
 BV BOUND     c1711   
 BV BOUND     c1712   
 BV BOUND     c1713   
 BV BOUND     c1714   
 BV BOUND     c1715   
 BV BOUND     c1716   
 BV BOUND     c1717   
 BV BOUND     c1718   
 BV BOUND     c1719   
 BV BOUND     c1720   
 BV BOUND     c1721   
 BV BOUND     c1722   
 BV BOUND     c1723   
 BV BOUND     c1724   
 BV BOUND     c1725   
 BV BOUND     c1726   
 BV BOUND     c1727   
 BV BOUND     c1728   
 BV BOUND     c1729   
 BV BOUND     c1730   
 BV BOUND     c1731   
 BV BOUND     c1732   
 BV BOUND     c1733   
 BV BOUND     c1734   
 BV BOUND     c1735   
 BV BOUND     c1736   
 BV BOUND     c1737   
 BV BOUND     c1738   
 BV BOUND     c1739   
 BV BOUND     c1740   
 BV BOUND     c1741   
 BV BOUND     c1742   
 BV BOUND     c1743   
 BV BOUND     c1744   
 BV BOUND     c1745   
 BV BOUND     c1746   
 BV BOUND     c1747   
 BV BOUND     c1748   
 BV BOUND     c1749   
 BV BOUND     c1750   
 BV BOUND     c1751   
 BV BOUND     c1752   
 BV BOUND     c1753   
 BV BOUND     c1754   
 BV BOUND     c1755   
 BV BOUND     c1756   
 BV BOUND     c1757   
 BV BOUND     c1758   
 BV BOUND     c1759   
 BV BOUND     c1760   
 BV BOUND     c1761   
 BV BOUND     c1762   
 BV BOUND     c1763   
 BV BOUND     c1764   
 BV BOUND     c1765   
 BV BOUND     c1766   
 BV BOUND     c1767   
 BV BOUND     c1768   
 BV BOUND     c1769   
 BV BOUND     c1770   
 BV BOUND     c1771   
 BV BOUND     c1772   
 BV BOUND     c1773   
 BV BOUND     c1774   
 BV BOUND     c1775   
 BV BOUND     c1776   
 BV BOUND     c1777   
 BV BOUND     c1778   
 BV BOUND     c1779   
 BV BOUND     c1780   
 BV BOUND     c1781   
 BV BOUND     c1782   
 BV BOUND     c1783   
 BV BOUND     c1784   
 BV BOUND     c1785   
 BV BOUND     c1786   
 BV BOUND     c1787   
 BV BOUND     c1788   
 BV BOUND     c1789   
 BV BOUND     c1790   
 BV BOUND     c1791   
 BV BOUND     c1792   
 BV BOUND     c1793   
 BV BOUND     c1794   
 BV BOUND     c1795   
 BV BOUND     c1796   
 BV BOUND     c1797   
 BV BOUND     c1798   
 BV BOUND     c1799   
 BV BOUND     c1800   
 BV BOUND     c1801   
 BV BOUND     c1802   
 BV BOUND     c1803   
 BV BOUND     c1804   
 BV BOUND     c1805   
 BV BOUND     c1806   
 BV BOUND     c1807   
 BV BOUND     c1808   
 BV BOUND     c1809   
 BV BOUND     c1810   
 BV BOUND     c1811   
 BV BOUND     c1812   
 BV BOUND     c1813   
 BV BOUND     c1814   
 BV BOUND     c1815   
 BV BOUND     c1816   
 BV BOUND     c1817   
 BV BOUND     c1818   
 BV BOUND     c1819   
 BV BOUND     c1820   
 BV BOUND     c1821   
 BV BOUND     c1822   
 BV BOUND     c1823   
 BV BOUND     c1824   
 BV BOUND     c1825   
 BV BOUND     c1826   
 BV BOUND     c1827   
 BV BOUND     c1828   
 BV BOUND     c1829   
 BV BOUND     c1830   
 BV BOUND     c1831   
 BV BOUND     c1832   
 BV BOUND     c1833   
 BV BOUND     c1834   
 BV BOUND     c1835   
 BV BOUND     c1836   
 BV BOUND     c1837   
 BV BOUND     c1838   
 BV BOUND     c1839   
 BV BOUND     c1840   
 BV BOUND     c1841   
 BV BOUND     c1842   
 BV BOUND     c1843   
 BV BOUND     c1844   
 BV BOUND     c1845   
 BV BOUND     c1846   
 BV BOUND     c1847   
 BV BOUND     c1848   
 BV BOUND     c1849   
 BV BOUND     c1850   
 BV BOUND     c1851   
 BV BOUND     c1852   
 BV BOUND     c1853   
 BV BOUND     c1854   
 BV BOUND     c1855   
 BV BOUND     c1856   
 BV BOUND     c1857   
 BV BOUND     c1858   
 BV BOUND     c1859   
 BV BOUND     c1860   
 BV BOUND     c1861   
 BV BOUND     c1862   
 BV BOUND     c1863   
 BV BOUND     c1864   
 BV BOUND     c1865   
 BV BOUND     c1866   
 BV BOUND     c1867   
 BV BOUND     c1868   
 BV BOUND     c1869   
 BV BOUND     c1870   
 BV BOUND     c1871   
 BV BOUND     c1872   
 BV BOUND     c1873   
 BV BOUND     c1874   
 BV BOUND     c1875   
 BV BOUND     c1876   
 BV BOUND     c1877   
 BV BOUND     c1878   
 BV BOUND     c1879   
 BV BOUND     c1880   
 BV BOUND     c1881   
 BV BOUND     c1882   
 BV BOUND     c1883   
 BV BOUND     c1884   
 BV BOUND     c1885   
 BV BOUND     c1886   
 BV BOUND     c1887   
 BV BOUND     c1888   
 BV BOUND     c1889   
 BV BOUND     c1890   
 BV BOUND     c1891   
 BV BOUND     c1892   
 BV BOUND     c1893   
 BV BOUND     c1894   
 BV BOUND     c1895   
 BV BOUND     c1896   
 BV BOUND     c1897   
 BV BOUND     c1898   
 BV BOUND     c1899   
 BV BOUND     c1900   
 BV BOUND     c1901   
 BV BOUND     c1902   
 BV BOUND     c1903   
 BV BOUND     c1904   
 BV BOUND     c1905   
 BV BOUND     c1906   
 BV BOUND     c1907   
 BV BOUND     c1908   
 BV BOUND     c1909   
 BV BOUND     c1910   
 BV BOUND     c1911   
 BV BOUND     c1912   
 BV BOUND     c1913   
 BV BOUND     c1914   
 BV BOUND     c1915   
 BV BOUND     c1916   
 BV BOUND     c1917   
 BV BOUND     c1918   
 BV BOUND     c1919   
 BV BOUND     c1920   
 BV BOUND     c1921   
 BV BOUND     c1922   
 BV BOUND     c1923   
 BV BOUND     c1924   
 BV BOUND     c1925   
 BV BOUND     c1926   
 BV BOUND     c1927   
 BV BOUND     c1928   
 BV BOUND     c1929   
 BV BOUND     c1930   
 BV BOUND     c1931   
 BV BOUND     c1932   
 BV BOUND     c1933   
 BV BOUND     c1934   
 BV BOUND     c1935   
 BV BOUND     c1936   
 BV BOUND     c1937   
 BV BOUND     c1938   
 BV BOUND     c1939   
 BV BOUND     c1940   
 BV BOUND     c1941   
 BV BOUND     c1942   
 BV BOUND     c1943   
 BV BOUND     c1944   
 BV BOUND     c1945   
 BV BOUND     c1946   
 BV BOUND     c1947   
 BV BOUND     c1948   
 BV BOUND     c1949   
 BV BOUND     c1950   
 BV BOUND     c1951   
 BV BOUND     c1952   
 BV BOUND     c1953   
 BV BOUND     c1954   
 BV BOUND     c1955   
 BV BOUND     c1956   
 BV BOUND     c1957   
 BV BOUND     c1958   
 BV BOUND     c1959   
 BV BOUND     c1960   
 BV BOUND     c1961   
 BV BOUND     c1962   
 BV BOUND     c1963   
 BV BOUND     c1964   
 BV BOUND     c1965   
 BV BOUND     c1966   
 BV BOUND     c1967   
 BV BOUND     c1968   
 BV BOUND     c1969   
 BV BOUND     c1970   
 BV BOUND     c1971   
 BV BOUND     c1972   
 BV BOUND     c1973   
 BV BOUND     c1974   
 BV BOUND     c1975   
 BV BOUND     c1976   
 BV BOUND     c1977   
 BV BOUND     c1978   
 BV BOUND     c1979   
 BV BOUND     c1980   
 BV BOUND     c1981   
 BV BOUND     c1982   
 BV BOUND     c1983   
 BV BOUND     c1984   
 BV BOUND     c1985   
 BV BOUND     c1986   
 BV BOUND     c1987   
 BV BOUND     c1988   
 BV BOUND     c1989   
 BV BOUND     c1990   
 BV BOUND     c1991   
 BV BOUND     c1992   
 BV BOUND     c1993   
 BV BOUND     c1994   
 BV BOUND     c1995   
 BV BOUND     c1996   
 BV BOUND     c1997   
 BV BOUND     c1998   
 BV BOUND     c1999   
 BV BOUND     c2000   
 BV BOUND     c2001   
 BV BOUND     c2002   
 BV BOUND     c2003   
 BV BOUND     c2004   
 BV BOUND     c2005   
 BV BOUND     c2006   
 BV BOUND     c2007   
 BV BOUND     c2008   
 BV BOUND     c2009   
 BV BOUND     c2010   
 BV BOUND     c2011   
 BV BOUND     c2012   
 BV BOUND     c2013   
 BV BOUND     c2014   
 BV BOUND     c2015   
 BV BOUND     c2016   
 BV BOUND     c2017   
 BV BOUND     c2018   
 BV BOUND     c2019   
 BV BOUND     c2020   
 BV BOUND     c2021   
 BV BOUND     c2022   
 BV BOUND     c2023   
 BV BOUND     c2024   
 BV BOUND     c2025   
 BV BOUND     c2026   
 BV BOUND     c2027   
 BV BOUND     c2028   
 BV BOUND     c2029   
 BV BOUND     c2030   
 BV BOUND     c2031   
 BV BOUND     c2032   
 BV BOUND     c2033   
 BV BOUND     c2034   
 BV BOUND     c2035   
 BV BOUND     c2036   
 BV BOUND     c2037   
 BV BOUND     c2038   
 BV BOUND     c2039   
 BV BOUND     c2040   
 BV BOUND     c2041   
 BV BOUND     c2042   
 BV BOUND     c2043   
 BV BOUND     c2044   
 BV BOUND     c2045   
 BV BOUND     c2046   
 BV BOUND     c2047   
 BV BOUND     c2048   
 BV BOUND     c2049   
 BV BOUND     c2050   
 BV BOUND     c2051   
 BV BOUND     c2052   
 BV BOUND     c2053   
 BV BOUND     c2054   
 BV BOUND     c2055   
 BV BOUND     c2056   
 BV BOUND     c2057   
 BV BOUND     c2058   
 BV BOUND     c2059   
 BV BOUND     c2060   
 BV BOUND     c2061   
 BV BOUND     c2062   
 BV BOUND     c2063   
 BV BOUND     c2064   
 BV BOUND     c2065   
 BV BOUND     c2066   
 BV BOUND     c2067   
 BV BOUND     c2068   
 BV BOUND     c2069   
 BV BOUND     c2070   
 BV BOUND     c2071   
 BV BOUND     c2072   
 BV BOUND     c2073   
 BV BOUND     c2074   
 BV BOUND     c2075   
 BV BOUND     c2076   
 BV BOUND     c2077   
 BV BOUND     c2078   
 BV BOUND     c2079   
 BV BOUND     c2080   
 BV BOUND     c2081   
 BV BOUND     c2082   
 BV BOUND     c2083   
 BV BOUND     c2084   
 BV BOUND     c2085   
 BV BOUND     c2086   
 BV BOUND     c2087   
 BV BOUND     c2088   
 BV BOUND     c2089   
 BV BOUND     c2090   
 BV BOUND     c2091   
 BV BOUND     c2092   
 BV BOUND     c2093   
 BV BOUND     c2094   
 BV BOUND     c2095   
 BV BOUND     c2096   
 BV BOUND     c2097   
 BV BOUND     c2098   
 BV BOUND     c2099   
 BV BOUND     c2100   
 BV BOUND     c2101   
 BV BOUND     c2102   
 BV BOUND     c2103   
 BV BOUND     c2104   
 BV BOUND     c2105   
 BV BOUND     c2106   
 BV BOUND     c2107   
 BV BOUND     c2108   
 BV BOUND     c2109   
 BV BOUND     c2110   
 BV BOUND     c2111   
 BV BOUND     c2112   
 BV BOUND     c2113   
 BV BOUND     c2114   
 BV BOUND     c2115   
 BV BOUND     c2116   
 BV BOUND     c2117   
 BV BOUND     c2118   
 BV BOUND     c2119   
 BV BOUND     c2120   
 BV BOUND     c2121   
 BV BOUND     c2122   
 BV BOUND     c2123   
 BV BOUND     c2124   
 BV BOUND     c2125   
 BV BOUND     c2126   
 BV BOUND     c2127   
 BV BOUND     c2128   
 BV BOUND     c2129   
 BV BOUND     c2130   
 BV BOUND     c2131   
 BV BOUND     c2132   
 BV BOUND     c2133   
 BV BOUND     c2134   
 BV BOUND     c2135   
 BV BOUND     c2136   
 BV BOUND     c2137   
 BV BOUND     c2138   
 BV BOUND     c2139   
 BV BOUND     c2140   
 BV BOUND     c2141   
 BV BOUND     c2142   
 BV BOUND     c2143   
 BV BOUND     c2144   
 BV BOUND     c2145   
 BV BOUND     c2146   
 BV BOUND     c2147   
 BV BOUND     c2148   
 BV BOUND     c2149   
 BV BOUND     c2150   
 BV BOUND     c2151   
 BV BOUND     c2152   
 BV BOUND     c2153   
 BV BOUND     c2154   
 BV BOUND     c2155   
 BV BOUND     c2156   
 BV BOUND     c2157   
 BV BOUND     c2158   
 BV BOUND     c2159   
 BV BOUND     c2160   
 BV BOUND     c2161   
 BV BOUND     c2162   
 BV BOUND     c2163   
 BV BOUND     c2164   
 BV BOUND     c2165   
 BV BOUND     c2166   
 BV BOUND     c2167   
 BV BOUND     c2168   
 BV BOUND     c2169   
 BV BOUND     c2170   
 BV BOUND     c2171   
 BV BOUND     c2172   
 BV BOUND     c2173   
 BV BOUND     c2174   
 BV BOUND     c2175   
 BV BOUND     c2176   
 BV BOUND     c2177   
 BV BOUND     c2178   
 BV BOUND     c2179   
 BV BOUND     c2180   
 BV BOUND     c2181   
 BV BOUND     c2182   
 BV BOUND     c2183   
 BV BOUND     c2184   
 BV BOUND     c2185   
 BV BOUND     c2186   
 BV BOUND     c2187   
 BV BOUND     c2188   
 BV BOUND     c2189   
 BV BOUND     c2190   
 BV BOUND     c2191   
 BV BOUND     c2192   
 BV BOUND     c2193   
 BV BOUND     c2194   
 BV BOUND     c2195   
 BV BOUND     c2196   
 BV BOUND     c2197   
 BV BOUND     c2198   
 BV BOUND     c2199   
 BV BOUND     c2200   
 BV BOUND     c2201   
 BV BOUND     c2202   
 BV BOUND     c2203   
 BV BOUND     c2204   
 BV BOUND     c2205   
 BV BOUND     c2206   
 BV BOUND     c2207   
 BV BOUND     c2208   
 BV BOUND     c2209   
 BV BOUND     c2210   
 BV BOUND     c2211   
 BV BOUND     c2212   
 BV BOUND     c2213   
 BV BOUND     c2214   
 BV BOUND     c2215   
 BV BOUND     c2216   
 BV BOUND     c2217   
 BV BOUND     c2218   
 BV BOUND     c2219   
 BV BOUND     c2220   
 BV BOUND     c2221   
 BV BOUND     c2222   
 BV BOUND     c2223   
 BV BOUND     c2224   
 BV BOUND     c2225   
 BV BOUND     c2226   
 BV BOUND     c2227   
 BV BOUND     c2228   
 BV BOUND     c2229   
 BV BOUND     c2230   
 BV BOUND     c2231   
 BV BOUND     c2232   
 BV BOUND     c2233   
 BV BOUND     c2234   
 BV BOUND     c2235   
 BV BOUND     c2236   
 BV BOUND     c2237   
 BV BOUND     c2238   
 BV BOUND     c2239   
 BV BOUND     c2240   
 BV BOUND     c2241   
 BV BOUND     c2242   
 BV BOUND     c2243   
 BV BOUND     c2244   
 BV BOUND     c2245   
 BV BOUND     c2246   
 BV BOUND     c2247   
 BV BOUND     c2248   
 BV BOUND     c2249   
 BV BOUND     c2250   
 BV BOUND     c2251   
 BV BOUND     c2252   
 BV BOUND     c2253   
 BV BOUND     c2254   
 BV BOUND     c2255   
 BV BOUND     c2256   
 BV BOUND     c2257   
 BV BOUND     c2258   
 BV BOUND     c2259   
 BV BOUND     c2260   
 BV BOUND     c2261   
 BV BOUND     c2262   
 BV BOUND     c2263   
 BV BOUND     c2264   
 BV BOUND     c2265   
 BV BOUND     c2266   
 BV BOUND     c2267   
 BV BOUND     c2268   
 BV BOUND     c2269   
 BV BOUND     c2270   
 BV BOUND     c2271   
 BV BOUND     c2272   
 BV BOUND     c2273   
 BV BOUND     c2274   
 BV BOUND     c2275   
 BV BOUND     c2276   
 BV BOUND     c2277   
 BV BOUND     c2278   
 BV BOUND     c2279   
 BV BOUND     c2280   
 BV BOUND     c2281   
 BV BOUND     c2282   
 BV BOUND     c2283   
 BV BOUND     c2284   
 BV BOUND     c2285   
 BV BOUND     c2286   
 BV BOUND     c2287   
 BV BOUND     c2288   
 BV BOUND     c2289   
 BV BOUND     c2290   
 BV BOUND     c2291   
 BV BOUND     c2292   
 BV BOUND     c2293   
 BV BOUND     c2294   
 BV BOUND     c2295   
 BV BOUND     c2296   
 BV BOUND     c2297   
 BV BOUND     c2298   
 BV BOUND     c2299   
 BV BOUND     c2300   
 BV BOUND     c2301   
 BV BOUND     c2302   
 BV BOUND     c2303   
 BV BOUND     c2304   
 BV BOUND     c2305   
 BV BOUND     c2306   
 BV BOUND     c2307   
 BV BOUND     c2308   
 BV BOUND     c2309   
 BV BOUND     c2310   
 BV BOUND     c2311   
 BV BOUND     c2312   
 BV BOUND     c2313   
 BV BOUND     c2314   
 BV BOUND     c2315   
 BV BOUND     c2316   
 BV BOUND     c2317   
 BV BOUND     c2318   
 BV BOUND     c2319   
 BV BOUND     c2320   
 BV BOUND     c2321   
 BV BOUND     c2322   
 BV BOUND     c2323   
 BV BOUND     c2324   
 BV BOUND     c2325   
 BV BOUND     c2326   
 BV BOUND     c2327   
 BV BOUND     c2328   
 BV BOUND     c2329   
 BV BOUND     c2330   
 BV BOUND     c2331   
 BV BOUND     c2332   
 BV BOUND     c2333   
 BV BOUND     c2334   
 BV BOUND     c2335   
 BV BOUND     c2336   
 BV BOUND     c2337   
 BV BOUND     c2338   
 BV BOUND     c2339   
 BV BOUND     c2340   
 BV BOUND     c2341   
 BV BOUND     c2342   
 BV BOUND     c2343   
 BV BOUND     c2344   
 BV BOUND     c2345   
 BV BOUND     c2346   
 BV BOUND     c2347   
 BV BOUND     c2348   
 BV BOUND     c2349   
 BV BOUND     c2350   
 BV BOUND     c2351   
 BV BOUND     c2352   
 BV BOUND     c2353   
 BV BOUND     c2354   
 BV BOUND     c2355   
 BV BOUND     c2356   
 BV BOUND     c2357   
 BV BOUND     c2358   
 BV BOUND     c2359   
 BV BOUND     c2360   
 BV BOUND     c2361   
 BV BOUND     c2362   
 BV BOUND     c2363   
 BV BOUND     c2364   
 BV BOUND     c2365   
 BV BOUND     c2366   
 BV BOUND     c2367   
 BV BOUND     c2368   
 BV BOUND     c2369   
 BV BOUND     c2370   
 BV BOUND     c2371   
 BV BOUND     c2372   
 BV BOUND     c2373   
 BV BOUND     c2374   
 BV BOUND     c2375   
 BV BOUND     c2376   
 BV BOUND     c2377   
 BV BOUND     c2378   
 BV BOUND     c2379   
 BV BOUND     c2380   
 BV BOUND     c2381   
 BV BOUND     c2382   
 BV BOUND     c2383   
 BV BOUND     c2384   
 BV BOUND     c2385   
 BV BOUND     c2386   
 BV BOUND     c2387   
 BV BOUND     c2388   
 BV BOUND     c2389   
 BV BOUND     c2390   
 BV BOUND     c2391   
 BV BOUND     c2392   
 BV BOUND     c2393   
 BV BOUND     c2394   
 BV BOUND     c2395   
 BV BOUND     c2396   
 BV BOUND     c2397   
 BV BOUND     c2398   
 BV BOUND     c2399   
 BV BOUND     c2400   
 BV BOUND     c2401   
 BV BOUND     c2402   
 BV BOUND     c2403   
 BV BOUND     c2404   
 BV BOUND     c2405   
 BV BOUND     c2406   
 BV BOUND     c2407   
 BV BOUND     c2408   
 BV BOUND     c2409   
 BV BOUND     c2410   
 BV BOUND     c2411   
 BV BOUND     c2412   
 BV BOUND     c2413   
 BV BOUND     c2414   
 BV BOUND     c2415   
 BV BOUND     c2416   
 BV BOUND     c2417   
 BV BOUND     c2418   
 BV BOUND     c2419   
 BV BOUND     c2420   
 BV BOUND     c2421   
 BV BOUND     c2422   
 BV BOUND     c2423   
 BV BOUND     c2424   
 BV BOUND     c2425   
 BV BOUND     c2426   
 BV BOUND     c2427   
 BV BOUND     c2428   
 BV BOUND     c2429   
 BV BOUND     c2430   
 BV BOUND     c2431   
 BV BOUND     c2432   
 BV BOUND     c2433   
 BV BOUND     c2434   
 BV BOUND     c2435   
 BV BOUND     c2436   
 BV BOUND     c2437   
 BV BOUND     c2438   
 BV BOUND     c2439   
 BV BOUND     c2440   
 BV BOUND     c2441   
 BV BOUND     c2442   
 BV BOUND     c2443   
 BV BOUND     c2444   
 BV BOUND     c2445   
 BV BOUND     c2446   
 BV BOUND     c2447   
 BV BOUND     c2448   
 BV BOUND     c2449   
 BV BOUND     c2450   
 BV BOUND     c2451   
 BV BOUND     c2452   
 BV BOUND     c2453   
 BV BOUND     c2454   
 BV BOUND     c2455   
 BV BOUND     c2456   
 BV BOUND     c2457   
 BV BOUND     c2458   
 BV BOUND     c2459   
 BV BOUND     c2460   
 BV BOUND     c2461   
 BV BOUND     c2462   
 BV BOUND     c2463   
 BV BOUND     c2464   
 BV BOUND     c2465   
 BV BOUND     c2466   
 BV BOUND     c2467   
 BV BOUND     c2468   
 BV BOUND     c2469   
 BV BOUND     c2470   
 BV BOUND     c2471   
 BV BOUND     c2472   
 BV BOUND     c2473   
 BV BOUND     c2474   
 BV BOUND     c2475   
 BV BOUND     c2476   
 BV BOUND     c2477   
 BV BOUND     c2478   
 BV BOUND     c2479   
 BV BOUND     c2480   
 BV BOUND     c2481   
 BV BOUND     c2482   
 BV BOUND     c2483   
 BV BOUND     c2484   
 BV BOUND     c2485   
 BV BOUND     c2486   
 BV BOUND     c2487   
 BV BOUND     c2488   
 BV BOUND     c2489   
 BV BOUND     c2490   
 BV BOUND     c2491   
 BV BOUND     c2492   
 BV BOUND     c2493   
 BV BOUND     c2494   
 BV BOUND     c2495   
 BV BOUND     c2496   
 BV BOUND     c2497   
 BV BOUND     c2498   
 BV BOUND     c2499   
 BV BOUND     c2500   
 BV BOUND     c2501   
 BV BOUND     c2502   
 BV BOUND     c2503   
 BV BOUND     c2504   
 BV BOUND     c2505   
 BV BOUND     c2506   
 BV BOUND     c2507   
 BV BOUND     c2508   
 BV BOUND     c2509   
 BV BOUND     c2510   
 BV BOUND     c2511   
 BV BOUND     c2512   
 BV BOUND     c2513   
 BV BOUND     c2514   
 BV BOUND     c2515   
 BV BOUND     c2516   
 BV BOUND     c2517   
 BV BOUND     c2518   
 BV BOUND     c2519   
 BV BOUND     c2520   
 BV BOUND     c2521   
 BV BOUND     c2522   
 BV BOUND     c2523   
 BV BOUND     c2524   
 BV BOUND     c2525   
 BV BOUND     c2526   
 BV BOUND     c2527   
 BV BOUND     c2528   
 BV BOUND     c2529   
 BV BOUND     c2530   
 BV BOUND     c2531   
 BV BOUND     c2532   
 BV BOUND     c2533   
 BV BOUND     c2534   
 BV BOUND     c2535   
 BV BOUND     c2536   
 BV BOUND     c2537   
 BV BOUND     c2538   
 BV BOUND     c2539   
 BV BOUND     c2540   
 BV BOUND     c2541   
 BV BOUND     c2542   
 BV BOUND     c2543   
 BV BOUND     c2544   
 BV BOUND     c2545   
 BV BOUND     c2546   
 BV BOUND     c2547   
 BV BOUND     c2548   
 BV BOUND     c2549   
 BV BOUND     c2550   
 BV BOUND     c2551   
 BV BOUND     c2552   
 BV BOUND     c2553   
 BV BOUND     c2554   
 BV BOUND     c2555   
 BV BOUND     c2556   
 BV BOUND     c2557   
 BV BOUND     c2558   
 BV BOUND     c2559   
 BV BOUND     c2560   
 BV BOUND     c2561   
 BV BOUND     c2562   
 BV BOUND     c2563   
 BV BOUND     c2564   
 BV BOUND     c2565   
 BV BOUND     c2566   
 BV BOUND     c2567   
 BV BOUND     c2568   
 BV BOUND     c2569   
 BV BOUND     c2570   
 BV BOUND     c2571   
 BV BOUND     c2572   
 BV BOUND     c2573   
 BV BOUND     c2574   
 BV BOUND     c2575   
 BV BOUND     c2576   
 BV BOUND     c2577   
 BV BOUND     c2578   
 BV BOUND     c2579   
 BV BOUND     c2580   
 BV BOUND     c2581   
 BV BOUND     c2582   
 BV BOUND     c2583   
 BV BOUND     c2584   
 BV BOUND     c2585   
 BV BOUND     c2586   
 BV BOUND     c2587   
 BV BOUND     c2588   
 BV BOUND     c2589   
 BV BOUND     c2590   
 BV BOUND     c2591   
 BV BOUND     c2592   
 BV BOUND     c2593   
 BV BOUND     c2594   
 BV BOUND     c2595   
 BV BOUND     c2596   
 BV BOUND     c2597   
 BV BOUND     c2598   
 BV BOUND     c2599   
 BV BOUND     c2600   
 BV BOUND     c2601   
 BV BOUND     c2602   
 BV BOUND     c2603   
 BV BOUND     c2604   
 BV BOUND     c2605   
 BV BOUND     c2606   
 BV BOUND     c2607   
 BV BOUND     c2608   
 BV BOUND     c2609   
 BV BOUND     c2610   
 BV BOUND     c2611   
 BV BOUND     c2612   
 BV BOUND     c2613   
 BV BOUND     c2614   
 BV BOUND     c2615   
 BV BOUND     c2616   
 BV BOUND     c2617   
 BV BOUND     c2618   
 BV BOUND     c2619   
 BV BOUND     c2620   
 BV BOUND     c2621   
 BV BOUND     c2622   
 BV BOUND     c2623   
 BV BOUND     c2624   
 BV BOUND     c2625   
 BV BOUND     c2626   
 BV BOUND     c2627   
 BV BOUND     c2628   
 BV BOUND     c2629   
 BV BOUND     c2630   
 BV BOUND     c2631   
 BV BOUND     c2632   
 BV BOUND     c2633   
 BV BOUND     c2634   
 BV BOUND     c2635   
 BV BOUND     c2636   
 BV BOUND     c2637   
 BV BOUND     c2638   
 BV BOUND     c2639   
 BV BOUND     c2640   
 BV BOUND     c2641   
 BV BOUND     c2642   
 BV BOUND     c2643   
 BV BOUND     c2644   
 BV BOUND     c2645   
 BV BOUND     c2646   
 BV BOUND     c2647   
 BV BOUND     c2648   
 BV BOUND     c2649   
 BV BOUND     c2650   
 BV BOUND     c2651   
 BV BOUND     c2652   
 BV BOUND     c2653   
 BV BOUND     c2654   
 BV BOUND     c2655   
 BV BOUND     c2656   
 BV BOUND     c2657   
 BV BOUND     c2658   
 BV BOUND     c2659   
 BV BOUND     c2660   
 BV BOUND     c2661   
 BV BOUND     c2662   
 BV BOUND     c2663   
 BV BOUND     c2664   
 BV BOUND     c2665   
 BV BOUND     c2666   
 BV BOUND     c2667   
 BV BOUND     c2668   
 BV BOUND     c2669   
 BV BOUND     c2670   
 BV BOUND     c2671   
 BV BOUND     c2672   
 BV BOUND     c2673   
 BV BOUND     c2674   
 BV BOUND     c2675   
 BV BOUND     c2676   
 BV BOUND     c2677   
 BV BOUND     c2678   
 BV BOUND     c2679   
 BV BOUND     c2680   
 BV BOUND     c2681   
 BV BOUND     c2682   
 BV BOUND     c2683   
 BV BOUND     c2684   
 BV BOUND     c2685   
 BV BOUND     c2686   
 BV BOUND     c2687   
 BV BOUND     c2688   
 BV BOUND     c2689   
 BV BOUND     c2690   
 BV BOUND     c2691   
 BV BOUND     c2692   
 BV BOUND     c2693   
 BV BOUND     c2694   
 BV BOUND     c2695   
 BV BOUND     c2696   
 BV BOUND     c2697   
 BV BOUND     c2698   
 BV BOUND     c2699   
 BV BOUND     c2700   
 BV BOUND     c2701   
 BV BOUND     c2702   
 BV BOUND     c2703   
 BV BOUND     c2704   
 BV BOUND     c2705   
 BV BOUND     c2706   
 BV BOUND     c2707   
 BV BOUND     c2708   
 BV BOUND     c2709   
 BV BOUND     c2710   
 BV BOUND     c2711   
 BV BOUND     c2712   
 BV BOUND     c2713   
 BV BOUND     c2714   
 BV BOUND     c2715   
 BV BOUND     c2716   
 BV BOUND     c2717   
 BV BOUND     c2718   
 BV BOUND     c2719   
 BV BOUND     c2720   
 BV BOUND     c2721   
 BV BOUND     c2722   
 BV BOUND     c2723   
 BV BOUND     c2724   
 BV BOUND     c2725   
 BV BOUND     c2726   
 BV BOUND     c2727   
 BV BOUND     c2728   
 BV BOUND     c2729   
 BV BOUND     c2730   
 BV BOUND     c2731   
 BV BOUND     c2732   
 BV BOUND     c2733   
 BV BOUND     c2734   
 BV BOUND     c2735   
 BV BOUND     c2736   
 BV BOUND     c2737   
 BV BOUND     c2738   
 BV BOUND     c2739   
 BV BOUND     c2740   
 BV BOUND     c2741   
 BV BOUND     c2742   
 BV BOUND     c2743   
 BV BOUND     c2744   
 BV BOUND     c2745   
 BV BOUND     c2746   
 BV BOUND     c2747   
 BV BOUND     c2748   
 BV BOUND     c2749   
 BV BOUND     c2750   
 BV BOUND     c2751   
 BV BOUND     c2752   
 BV BOUND     c2753   
 BV BOUND     c2754   
 BV BOUND     c2755   
 BV BOUND     c2756   
 BV BOUND     c2757   
 BV BOUND     c2758   
 BV BOUND     c2759   
 BV BOUND     c2760   
 BV BOUND     c2761   
 BV BOUND     c2762   
 BV BOUND     c2763   
 BV BOUND     c2764   
 BV BOUND     c2765   
 BV BOUND     c2766   
 BV BOUND     c2767   
 BV BOUND     c2768   
 BV BOUND     c2769   
 BV BOUND     c2770   
 BV BOUND     c2771   
 BV BOUND     c2772   
 BV BOUND     c2773   
 BV BOUND     c2774   
 BV BOUND     c2775   
 BV BOUND     c2776   
 BV BOUND     c2777   
 BV BOUND     c2778   
 BV BOUND     c2779   
 BV BOUND     c2780   
 BV BOUND     c2781   
 BV BOUND     c2782   
 BV BOUND     c2783   
 BV BOUND     c2784   
 BV BOUND     c2785   
 BV BOUND     c2786   
 BV BOUND     c2787   
 BV BOUND     c2788   
 BV BOUND     c2789   
 BV BOUND     c2790   
 BV BOUND     c2791   
 BV BOUND     c2792   
 BV BOUND     c2793   
 BV BOUND     c2794   
 BV BOUND     c2795   
 BV BOUND     c2796   
 BV BOUND     c2797   
 BV BOUND     c2798   
 BV BOUND     c2799   
 BV BOUND     c2800   
 BV BOUND     c2801   
 BV BOUND     c2802   
 BV BOUND     c2803   
 BV BOUND     c2804   
 BV BOUND     c2805   
 BV BOUND     c2806   
 BV BOUND     c2807   
 BV BOUND     c2808   
 BV BOUND     c2809   
 BV BOUND     c2810   
 BV BOUND     c2811   
 BV BOUND     c2812   
 BV BOUND     c2813   
 BV BOUND     c2814   
 BV BOUND     c2815   
 BV BOUND     c2816   
 BV BOUND     c2817   
 BV BOUND     c2818   
 BV BOUND     c2819   
 BV BOUND     c2820   
 BV BOUND     c2821   
 BV BOUND     c2822   
 BV BOUND     c2823   
 BV BOUND     c2824   
 BV BOUND     c2825   
 BV BOUND     c2826   
 BV BOUND     c2827   
 BV BOUND     c2828   
 BV BOUND     c2829   
 BV BOUND     c2830   
 BV BOUND     c2831   
 BV BOUND     c2832   
 BV BOUND     c2833   
 BV BOUND     c2834   
 BV BOUND     c2835   
 BV BOUND     c2836   
 BV BOUND     c2837   
 BV BOUND     c2838   
 BV BOUND     c2839   
 BV BOUND     c2840   
 BV BOUND     c2841   
 BV BOUND     c2842   
 BV BOUND     c2843   
 BV BOUND     c2844   
 BV BOUND     c2845   
 BV BOUND     c2846   
 BV BOUND     c2847   
 BV BOUND     c2848   
 BV BOUND     c2849   
 BV BOUND     c2850   
 BV BOUND     c2851   
 BV BOUND     c2852   
 BV BOUND     c2853   
 BV BOUND     c2854   
 BV BOUND     c2855   
 BV BOUND     c2856   
 BV BOUND     c2857   
 BV BOUND     c2858   
 BV BOUND     c2859   
 BV BOUND     c2860   
 BV BOUND     c2861   
 BV BOUND     c2862   
 BV BOUND     c2863   
 BV BOUND     c2864   
 BV BOUND     c2865   
 BV BOUND     c2866   
 BV BOUND     c2867   
 BV BOUND     c2868   
 BV BOUND     c2869   
 BV BOUND     c2870   
 BV BOUND     c2871   
 BV BOUND     c2872   
 BV BOUND     c2873   
 BV BOUND     c2874   
 BV BOUND     c2875   
 BV BOUND     c2876   
 BV BOUND     c2877   
 BV BOUND     c2878   
 BV BOUND     c2879   
 BV BOUND     c2880   
 BV BOUND     c2881   
 BV BOUND     c2882   
 BV BOUND     c2883   
 BV BOUND     c2884   
 BV BOUND     c2885   
 BV BOUND     c2886   
 BV BOUND     c2887   
 BV BOUND     c2888   
 BV BOUND     c2889   
 BV BOUND     c2890   
 BV BOUND     c2891   
 BV BOUND     c2892   
 BV BOUND     c2893   
 BV BOUND     c2894   
 BV BOUND     c2895   
 BV BOUND     c2896   
 BV BOUND     c2897   
 BV BOUND     c2898   
 BV BOUND     c2899   
 BV BOUND     c2900   
 BV BOUND     c2901   
 BV BOUND     c2902   
 BV BOUND     c2903   
 BV BOUND     c2904   
 BV BOUND     c2905   
 BV BOUND     c2906   
 BV BOUND     c2907   
 BV BOUND     c2908   
 BV BOUND     c2909   
 BV BOUND     c2910   
 BV BOUND     c2911   
 BV BOUND     c2912   
 BV BOUND     c2913   
 BV BOUND     c2914   
 BV BOUND     c2915   
 BV BOUND     c2916   
 BV BOUND     c2917   
 BV BOUND     c2918   
 BV BOUND     c2919   
 BV BOUND     c2920   
 BV BOUND     c2921   
 BV BOUND     c2922   
 BV BOUND     c2923   
 BV BOUND     c2924   
 BV BOUND     c2925   
 BV BOUND     c2926   
 BV BOUND     c2927   
 BV BOUND     c2928   
 BV BOUND     c2929   
 BV BOUND     c2930   
 BV BOUND     c2931   
 BV BOUND     c2932   
 BV BOUND     c2933   
 BV BOUND     c2934   
 BV BOUND     c2935   
 BV BOUND     c2936   
 BV BOUND     c2937   
 BV BOUND     c2938   
 BV BOUND     c2939   
 BV BOUND     c2940   
 BV BOUND     c2941   
 BV BOUND     c2942   
 BV BOUND     c2943   
 BV BOUND     c2944   
 BV BOUND     c2945   
 BV BOUND     c2946   
 BV BOUND     c2947   
 BV BOUND     c2948   
 BV BOUND     c2949   
 BV BOUND     c2950   
 BV BOUND     c2951   
 BV BOUND     c2952   
 BV BOUND     c2953   
 BV BOUND     c2954   
 BV BOUND     c2955   
 BV BOUND     c2956   
 BV BOUND     c2957   
 BV BOUND     c2958   
 BV BOUND     c2959   
 BV BOUND     c2960   
 BV BOUND     c2961   
 BV BOUND     c2962   
 BV BOUND     c2963   
 BV BOUND     c2964   
 BV BOUND     c2965   
 BV BOUND     c2966   
 BV BOUND     c2967   
 BV BOUND     c2968   
 BV BOUND     c2969   
 BV BOUND     c2970   
 BV BOUND     c2971   
 BV BOUND     c2972   
 BV BOUND     c2973   
 BV BOUND     c2974   
 BV BOUND     c2975   
 BV BOUND     c2976   
 BV BOUND     c2977   
 BV BOUND     c2978   
 BV BOUND     c2979   
 BV BOUND     c2980   
 BV BOUND     c2981   
 BV BOUND     c2982   
 BV BOUND     c2983   
 BV BOUND     c2984   
 BV BOUND     c2985   
 BV BOUND     c2986   
 BV BOUND     c2987   
 BV BOUND     c2988   
 BV BOUND     c2989   
 BV BOUND     c2990   
 BV BOUND     c2991   
 BV BOUND     c2992   
 BV BOUND     c2993   
 BV BOUND     c2994   
 BV BOUND     c2995   
 BV BOUND     c2996   
 BV BOUND     c2997   
 BV BOUND     c2998   
 BV BOUND     c2999   
 BV BOUND     c3000   
 BV BOUND     c3001   
 BV BOUND     c3002   
 BV BOUND     c3003   
 BV BOUND     c3004   
 BV BOUND     c3005   
 BV BOUND     c3006   
 BV BOUND     c3007   
 BV BOUND     c3008   
 BV BOUND     c3009   
 BV BOUND     c3010   
 BV BOUND     c3011   
 BV BOUND     c3012   
 BV BOUND     c3013   
 BV BOUND     c3014   
 BV BOUND     c3015   
 BV BOUND     c3016   
 BV BOUND     c3017   
 BV BOUND     c3018   
 BV BOUND     c3019   
 BV BOUND     c3020   
 BV BOUND     c3021   
 BV BOUND     c3022   
 BV BOUND     c3023   
 BV BOUND     c3024   
 BV BOUND     c3025   
 BV BOUND     c3026   
 BV BOUND     c3027   
 BV BOUND     c3028   
 BV BOUND     c3029   
 BV BOUND     c3030   
 BV BOUND     c3031   
 BV BOUND     c3032   
 BV BOUND     c3033   
 BV BOUND     c3034   
 BV BOUND     c3035   
 BV BOUND     c3036   
 BV BOUND     c3037   
 BV BOUND     c3038   
 BV BOUND     c3039   
 BV BOUND     c3040   
 BV BOUND     c3041   
 BV BOUND     c3042   
 BV BOUND     c3043   
 BV BOUND     c3044   
 BV BOUND     c3045   
 BV BOUND     c3046   
 BV BOUND     c3047   
 BV BOUND     c3048   
 BV BOUND     c3049   
 BV BOUND     c3050   
 BV BOUND     c3051   
 BV BOUND     c3052   
 BV BOUND     c3053   
 BV BOUND     c3054   
 BV BOUND     c3055   
 BV BOUND     c3056   
 BV BOUND     c3057   
 BV BOUND     c3058   
 BV BOUND     c3059   
 BV BOUND     c3060   
 BV BOUND     c3061   
 BV BOUND     c3062   
 BV BOUND     c3063   
 BV BOUND     c3064   
 BV BOUND     c3065   
 BV BOUND     c3066   
 BV BOUND     c3067   
 BV BOUND     c3068   
 BV BOUND     c3069   
 BV BOUND     c3070   
 BV BOUND     c3071   
 BV BOUND     c3072   
 BV BOUND     c3073   
 BV BOUND     c3074   
 BV BOUND     c3075   
 BV BOUND     c3076   
 BV BOUND     c3077   
 BV BOUND     c3078   
 BV BOUND     c3079   
 BV BOUND     c3080   
 BV BOUND     c3081   
 BV BOUND     c3082   
 BV BOUND     c3083   
 BV BOUND     c3084   
 BV BOUND     c3085   
 BV BOUND     c3086   
 BV BOUND     c3087   
 BV BOUND     c3088   
 BV BOUND     c3089   
 BV BOUND     c3090   
 BV BOUND     c3091   
 BV BOUND     c3092   
 BV BOUND     c3093   
 BV BOUND     c3094   
 BV BOUND     c3095   
 BV BOUND     c3096   
 BV BOUND     c3097   
 BV BOUND     c3098   
 BV BOUND     c3099   
 BV BOUND     c3100   
 BV BOUND     c3101   
 BV BOUND     c3102   
 BV BOUND     c3103   
 BV BOUND     c3104   
 BV BOUND     c3105   
 BV BOUND     c3106   
 BV BOUND     c3107   
 BV BOUND     c3108   
 BV BOUND     c3109   
 BV BOUND     c3110   
 BV BOUND     c3111   
 BV BOUND     c3112   
 BV BOUND     c3113   
 BV BOUND     c3114   
 BV BOUND     c3115   
 BV BOUND     c3116   
 BV BOUND     c3117   
 BV BOUND     c3118   
 BV BOUND     c3119   
 BV BOUND     c3120   
 BV BOUND     c3121   
 BV BOUND     c3122   
 BV BOUND     c3123   
 BV BOUND     c3124   
 BV BOUND     c3125   
 BV BOUND     c3126   
 BV BOUND     c3127   
 BV BOUND     c3128   
 BV BOUND     c3129   
 BV BOUND     c3130   
 BV BOUND     c3131   
 BV BOUND     c3132   
 BV BOUND     c3133   
 BV BOUND     c3134   
 BV BOUND     c3135   
 BV BOUND     c3136   
 BV BOUND     c3137   
 BV BOUND     c3138   
 BV BOUND     c3139   
 BV BOUND     c3140   
 BV BOUND     c3141   
 BV BOUND     c3142   
 BV BOUND     c3143   
 BV BOUND     c3144   
 BV BOUND     c3145   
 BV BOUND     c3146   
 BV BOUND     c3147   
 BV BOUND     c3148   
 BV BOUND     c3149   
 BV BOUND     c3150   
 BV BOUND     c3151   
 BV BOUND     c3152   
 BV BOUND     c3153   
 BV BOUND     c3154   
 BV BOUND     c3155   
 BV BOUND     c3156   
 BV BOUND     c3157   
 BV BOUND     c3158   
 BV BOUND     c3159   
 BV BOUND     c3160   
 BV BOUND     c3161   
 BV BOUND     c3162   
 BV BOUND     c3163   
 BV BOUND     c3164   
 BV BOUND     c3165   
 BV BOUND     c3166   
 BV BOUND     c3167   
 BV BOUND     c3168   
 BV BOUND     c3169   
 BV BOUND     c3170   
 BV BOUND     c3171   
 BV BOUND     c3172   
 BV BOUND     c3173   
 BV BOUND     c3174   
 BV BOUND     c3175   
 BV BOUND     c3176   
 BV BOUND     c3177   
 BV BOUND     c3178   
 BV BOUND     c3179   
 BV BOUND     c3180   
 BV BOUND     c3181   
 BV BOUND     c3182   
 BV BOUND     c3183   
 BV BOUND     c3184   
 BV BOUND     c3185   
 BV BOUND     c3186   
 BV BOUND     c3187   
 BV BOUND     c3188   
 BV BOUND     c3189   
 BV BOUND     c3190   
 BV BOUND     c3191   
 BV BOUND     c3192   
 BV BOUND     c3193   
 BV BOUND     c3194   
 BV BOUND     c3195   
 BV BOUND     c3196   
 BV BOUND     c3197   
 BV BOUND     c3198   
 BV BOUND     c3199   
 BV BOUND     c3200   
 BV BOUND     c3201   
 BV BOUND     c3202   
 BV BOUND     c3203   
 BV BOUND     c3204   
 BV BOUND     c3205   
 BV BOUND     c3206   
 BV BOUND     c3207   
 BV BOUND     c3208   
 BV BOUND     c3209   
 BV BOUND     c3210   
 BV BOUND     c3211   
 BV BOUND     c3212   
 BV BOUND     c3213   
 BV BOUND     c3214   
 BV BOUND     c3215   
 BV BOUND     c3216   
 BV BOUND     c3217   
 BV BOUND     c3218   
 BV BOUND     c3219   
 BV BOUND     c3220   
 BV BOUND     c3221   
 BV BOUND     c3222   
 BV BOUND     c3223   
 BV BOUND     c3224   
 BV BOUND     c3225   
 BV BOUND     c3226   
 BV BOUND     c3227   
 BV BOUND     c3228   
 BV BOUND     c3229   
 BV BOUND     c3230   
 BV BOUND     c3231   
 BV BOUND     c3232   
 BV BOUND     c3233   
 BV BOUND     c3234   
 BV BOUND     c3235   
 BV BOUND     c3236   
 BV BOUND     c3237   
 BV BOUND     c3238   
 BV BOUND     c3239   
 BV BOUND     c3240   
 BV BOUND     c3241   
 BV BOUND     c3242   
 BV BOUND     c3243   
 BV BOUND     c3244   
 BV BOUND     c3245   
 BV BOUND     c3246   
 BV BOUND     c3247   
 BV BOUND     c3248   
 BV BOUND     c3249   
 BV BOUND     c3250   
 BV BOUND     c3251   
 BV BOUND     c3252   
 BV BOUND     c3253   
 BV BOUND     c3254   
 BV BOUND     c3255   
 BV BOUND     c3256   
 BV BOUND     c3257   
 BV BOUND     c3258   
 BV BOUND     c3259   
 BV BOUND     c3260   
 BV BOUND     c3261   
 BV BOUND     c3262   
 BV BOUND     c3263   
 BV BOUND     c3264   
 BV BOUND     c3265   
 BV BOUND     c3266   
 BV BOUND     c3267   
 BV BOUND     c3268   
 BV BOUND     c3269   
 BV BOUND     c3270   
 BV BOUND     c3271   
 BV BOUND     c3272   
 BV BOUND     c3273   
 BV BOUND     c3274   
 BV BOUND     c3275   
 BV BOUND     c3276   
 BV BOUND     c3277   
 BV BOUND     c3278   
 BV BOUND     c3279   
 BV BOUND     c3280   
 BV BOUND     c3281   
 BV BOUND     c3282   
 BV BOUND     c3283   
 BV BOUND     c3284   
 BV BOUND     c3285   
 BV BOUND     c3286   
 BV BOUND     c3287   
 BV BOUND     c3288   
 BV BOUND     c3289   
 BV BOUND     c3290   
 BV BOUND     c3291   
 BV BOUND     c3292   
 BV BOUND     c3293   
 BV BOUND     c3294   
 BV BOUND     c3295   
 BV BOUND     c3296   
 BV BOUND     c3297   
 BV BOUND     c3298   
 BV BOUND     c3299   
 BV BOUND     c3300   
 BV BOUND     c3301   
 BV BOUND     c3302   
 BV BOUND     c3303   
 BV BOUND     c3304   
 BV BOUND     c3305   
 BV BOUND     c3306   
 BV BOUND     c3307   
 BV BOUND     c3308   
 BV BOUND     c3309   
 BV BOUND     c3310   
 BV BOUND     c3311   
 BV BOUND     c3312   
 BV BOUND     c3313   
 BV BOUND     c3314   
 BV BOUND     c3315   
 BV BOUND     c3316   
 BV BOUND     c3317   
 BV BOUND     c3318   
 BV BOUND     c3319   
 BV BOUND     c3320   
 BV BOUND     c3321   
 BV BOUND     c3322   
 BV BOUND     c3323   
 BV BOUND     c3324   
 BV BOUND     c3325   
 BV BOUND     c3326   
 BV BOUND     c3327   
 BV BOUND     c3328   
 BV BOUND     c3329   
 BV BOUND     c3330   
 BV BOUND     c3331   
 BV BOUND     c3332   
 BV BOUND     c3333   
 BV BOUND     c3334   
 BV BOUND     c3335   
 BV BOUND     c3336   
 BV BOUND     c3337   
 BV BOUND     c3338   
 BV BOUND     c3339   
 BV BOUND     c3340   
 BV BOUND     c3341   
 BV BOUND     c3342   
 BV BOUND     c3343   
 BV BOUND     c3344   
 BV BOUND     c3345   
 BV BOUND     c3346   
 BV BOUND     c3347   
 BV BOUND     c3348   
 BV BOUND     c3349   
 BV BOUND     c3350   
 BV BOUND     c3351   
 BV BOUND     c3352   
 BV BOUND     c3353   
 BV BOUND     c3354   
 BV BOUND     c3355   
 BV BOUND     c3356   
 BV BOUND     c3357   
 BV BOUND     c3358   
 BV BOUND     c3359   
 BV BOUND     c3360   
 BV BOUND     c3361   
 BV BOUND     c3362   
 BV BOUND     c3363   
 BV BOUND     c3364   
 BV BOUND     c3365   
 BV BOUND     c3366   
 BV BOUND     c3367   
 BV BOUND     c3368   
 BV BOUND     c3369   
 BV BOUND     c3370   
 BV BOUND     c3371   
 BV BOUND     c3372   
 BV BOUND     c3373   
 BV BOUND     c3374   
 BV BOUND     c3375   
 BV BOUND     c3376   
 BV BOUND     c3377   
 BV BOUND     c3378   
 BV BOUND     c3379   
 BV BOUND     c3380   
 BV BOUND     c3381   
 BV BOUND     c3382   
 BV BOUND     c3383   
 BV BOUND     c3384   
 BV BOUND     c3385   
 BV BOUND     c3386   
 BV BOUND     c3387   
 BV BOUND     c3388   
 BV BOUND     c3389   
 BV BOUND     c3390   
 BV BOUND     c3391   
 BV BOUND     c3392   
 BV BOUND     c3393   
 BV BOUND     c3394   
 BV BOUND     c3395   
 BV BOUND     c3396   
 BV BOUND     c3397   
 BV BOUND     c3398   
 BV BOUND     c3399   
 BV BOUND     c3400   
 BV BOUND     c3401   
 BV BOUND     c3402   
 BV BOUND     c3403   
 BV BOUND     c3404   
 BV BOUND     c3405   
 BV BOUND     c3406   
 BV BOUND     c3407   
 BV BOUND     c3408   
 BV BOUND     c3409   
 BV BOUND     c3410   
 BV BOUND     c3411   
 BV BOUND     c3412   
 BV BOUND     c3413   
 BV BOUND     c3414   
 BV BOUND     c3415   
 BV BOUND     c3416   
 BV BOUND     c3417   
 BV BOUND     c3418   
 BV BOUND     c3419   
 BV BOUND     c3420   
 BV BOUND     c3421   
 BV BOUND     c3422   
 BV BOUND     c3423   
 BV BOUND     c3424   
 BV BOUND     c3425   
 BV BOUND     c3426   
 BV BOUND     c3427   
 BV BOUND     c3428   
 BV BOUND     c3429   
 BV BOUND     c3430   
 BV BOUND     c3431   
 BV BOUND     c3432   
 BV BOUND     c3433   
 BV BOUND     c3434   
 BV BOUND     c3435   
 BV BOUND     c3436   
 BV BOUND     c3437   
 BV BOUND     c3438   
 BV BOUND     c3439   
 BV BOUND     c3440   
 BV BOUND     c3441   
 BV BOUND     c3442   
 BV BOUND     c3443   
 BV BOUND     c3444   
 BV BOUND     c3445   
 BV BOUND     c3446   
 BV BOUND     c3447   
 BV BOUND     c3448   
 BV BOUND     c3449   
 BV BOUND     c3450   
 BV BOUND     c3451   
 BV BOUND     c3452   
 BV BOUND     c3453   
 BV BOUND     c3454   
 BV BOUND     c3455   
 BV BOUND     c3456   
 BV BOUND     c3457   
 BV BOUND     c3458   
 BV BOUND     c3459   
 BV BOUND     c3460   
 BV BOUND     c3461   
 BV BOUND     c3462   
 BV BOUND     c3463   
 BV BOUND     c3464   
 BV BOUND     c3465   
 BV BOUND     c3466   
 BV BOUND     c3467   
 BV BOUND     c3468   
 BV BOUND     c3469   
 BV BOUND     c3470   
 BV BOUND     c3471   
 BV BOUND     c3472   
 BV BOUND     c3473   
 BV BOUND     c3474   
 BV BOUND     c3475   
 BV BOUND     c3476   
 BV BOUND     c3477   
 BV BOUND     c3478   
 BV BOUND     c3479   
 BV BOUND     c3480   
 BV BOUND     c3481   
 BV BOUND     c3482   
 BV BOUND     c3483   
 BV BOUND     c3484   
 BV BOUND     c3485   
 BV BOUND     c3486   
 BV BOUND     c3487   
 BV BOUND     c3488   
 BV BOUND     c3489   
 BV BOUND     c3490   
 BV BOUND     c3491   
 BV BOUND     c3492   
 BV BOUND     c3493   
 BV BOUND     c3494   
 BV BOUND     c3495   
 BV BOUND     c3496   
 BV BOUND     c3497   
 BV BOUND     c3498   
 BV BOUND     c3499   
 BV BOUND     c3500   
 BV BOUND     c3501   
 BV BOUND     c3502   
 BV BOUND     c3503   
 BV BOUND     c3504   
 BV BOUND     c3505   
 BV BOUND     c3506   
 BV BOUND     c3507   
 BV BOUND     c3508   
 BV BOUND     c3509   
 BV BOUND     c3510   
 BV BOUND     c3511   
 BV BOUND     c3512   
 BV BOUND     c3513   
 BV BOUND     c3514   
 BV BOUND     c3515   
 BV BOUND     c3516   
 BV BOUND     c3517   
 BV BOUND     c3518   
 BV BOUND     c3519   
 BV BOUND     c3520   
 BV BOUND     c3521   
 BV BOUND     c3522   
 BV BOUND     c3523   
 BV BOUND     c3524   
 BV BOUND     c3525   
 BV BOUND     c3526   
 BV BOUND     c3527   
 BV BOUND     c3528   
 BV BOUND     c3529   
 BV BOUND     c3530   
 BV BOUND     c3531   
 BV BOUND     c3532   
 BV BOUND     c3533   
 BV BOUND     c3534   
 BV BOUND     c3535   
 BV BOUND     c3536   
 BV BOUND     c3537   
 BV BOUND     c3538   
 BV BOUND     c3539   
 BV BOUND     c3540   
 BV BOUND     c3541   
 BV BOUND     c3542   
 BV BOUND     c3543   
 BV BOUND     c3544   
 BV BOUND     c3545   
 BV BOUND     c3546   
 BV BOUND     c3547   
 BV BOUND     c3548   
 BV BOUND     c3549   
 BV BOUND     c3550   
 BV BOUND     c3551   
 BV BOUND     c3552   
 BV BOUND     c3553   
 BV BOUND     c3554   
 BV BOUND     c3555   
 BV BOUND     c3556   
 BV BOUND     c3557   
 BV BOUND     c3558   
 BV BOUND     c3559   
 BV BOUND     c3560   
 BV BOUND     c3561   
 BV BOUND     c3562   
 BV BOUND     c3563   
 BV BOUND     c3564   
 BV BOUND     c3565   
 BV BOUND     c3566   
 BV BOUND     c3567   
 BV BOUND     c3568   
 BV BOUND     c3569   
 BV BOUND     c3570   
 BV BOUND     c3571   
 BV BOUND     c3572   
 BV BOUND     c3573   
 BV BOUND     c3574   
 BV BOUND     c3575   
 BV BOUND     c3576   
 BV BOUND     c3577   
 BV BOUND     c3578   
 BV BOUND     c3579   
 BV BOUND     c3580   
 BV BOUND     c3581   
 BV BOUND     c3582   
 BV BOUND     c3583   
 BV BOUND     c3584   
 BV BOUND     c3585   
 BV BOUND     c3586   
 BV BOUND     c3587   
 BV BOUND     c3588   
 BV BOUND     c3589   
 BV BOUND     c3590   
 BV BOUND     c3591   
 BV BOUND     c3592   
 BV BOUND     c3593   
 BV BOUND     c3594   
 BV BOUND     c3595   
 BV BOUND     c3596   
 BV BOUND     c3597   
 BV BOUND     c3598   
 BV BOUND     c3599   
 BV BOUND     c3600   
 BV BOUND     c3601   
 BV BOUND     c3602   
 BV BOUND     c3603   
 BV BOUND     c3604   
 BV BOUND     c3605   
 BV BOUND     c3606   
 BV BOUND     c3607   
 BV BOUND     c3608   
 BV BOUND     c3609   
 BV BOUND     c3610   
 BV BOUND     c3611   
 BV BOUND     c3612   
 BV BOUND     c3613   
 BV BOUND     c3614   
 BV BOUND     c3615   
 BV BOUND     c3616   
 BV BOUND     c3617   
 BV BOUND     c3618   
 BV BOUND     c3619   
 BV BOUND     c3620   
 BV BOUND     c3621   
 BV BOUND     c3622   
 BV BOUND     c3623   
 BV BOUND     c3624   
 BV BOUND     c3625   
 BV BOUND     c3626   
 BV BOUND     c3627   
 BV BOUND     c3628   
 BV BOUND     c3629   
 BV BOUND     c3630   
 BV BOUND     c3631   
 BV BOUND     c3632   
 BV BOUND     c3633   
 BV BOUND     c3634   
 BV BOUND     c3635   
 BV BOUND     c3636   
 BV BOUND     c3637   
 BV BOUND     c3638   
 BV BOUND     c3639   
 BV BOUND     c3640   
 BV BOUND     c3641   
 BV BOUND     c3642   
 BV BOUND     c3643   
 BV BOUND     c3644   
 BV BOUND     c3645   
 BV BOUND     c3646   
 BV BOUND     c3647   
 BV BOUND     c3648   
 BV BOUND     c3649   
 BV BOUND     c3650   
 BV BOUND     c3651   
 BV BOUND     c3652   
 BV BOUND     c3653   
 BV BOUND     c3654   
 BV BOUND     c3655   
 BV BOUND     c3656   
 BV BOUND     c3657   
 BV BOUND     c3658   
 BV BOUND     c3659   
 BV BOUND     c3660   
 BV BOUND     c3661   
 BV BOUND     c3662   
 BV BOUND     c3663   
 BV BOUND     c3664   
 BV BOUND     c3665   
 BV BOUND     c3666   
 BV BOUND     c3667   
 BV BOUND     c3668   
 BV BOUND     c3669   
 BV BOUND     c3670   
 BV BOUND     c3671   
 BV BOUND     c3672   
 BV BOUND     c3673   
 BV BOUND     c3674   
 BV BOUND     c3675   
 BV BOUND     c3676   
 BV BOUND     c3677   
 BV BOUND     c3678   
 BV BOUND     c3679   
 BV BOUND     c3680   
 BV BOUND     c3681   
 BV BOUND     c3682   
 BV BOUND     c3683   
 BV BOUND     c3684   
 BV BOUND     c3685   
 BV BOUND     c3686   
 BV BOUND     c3687   
 BV BOUND     c3688   
 BV BOUND     c3689   
 BV BOUND     c3690   
 BV BOUND     c3691   
 BV BOUND     c3692   
 BV BOUND     c3693   
 BV BOUND     c3694   
 BV BOUND     c3695   
 BV BOUND     c3696   
 BV BOUND     c3697   
 BV BOUND     c3698   
 BV BOUND     c3699   
 BV BOUND     c3700   
 BV BOUND     c3701   
 BV BOUND     c3702   
 BV BOUND     c3703   
 BV BOUND     c3704   
 BV BOUND     c3705   
 BV BOUND     c3706   
 BV BOUND     c3707   
 BV BOUND     c3708   
 BV BOUND     c3709   
 BV BOUND     c3710   
 BV BOUND     c3711   
 BV BOUND     c3712   
 BV BOUND     c3713   
 BV BOUND     c3714   
 BV BOUND     c3715   
 BV BOUND     c3716   
 BV BOUND     c3717   
 BV BOUND     c3718   
 BV BOUND     c3719   
 BV BOUND     c3720   
 BV BOUND     c3721   
 BV BOUND     c3722   
 BV BOUND     c3723   
 BV BOUND     c3724   
 BV BOUND     c3725   
 BV BOUND     c3726   
 BV BOUND     c3727   
 BV BOUND     c3728   
 BV BOUND     c3729   
 BV BOUND     c3730   
 BV BOUND     c3731   
 BV BOUND     c3732   
 BV BOUND     c3733   
 BV BOUND     c3734   
 BV BOUND     c3735   
 BV BOUND     c3736   
 BV BOUND     c3737   
 BV BOUND     c3738   
 BV BOUND     c3739   
 BV BOUND     c3740   
 BV BOUND     c3741   
 BV BOUND     c3742   
 BV BOUND     c3743   
 BV BOUND     c3744   
 BV BOUND     c3745   
 BV BOUND     c3746   
 BV BOUND     c3747   
 BV BOUND     c3748   
 BV BOUND     c3749   
 BV BOUND     c3750   
 BV BOUND     c3751   
 BV BOUND     c3752   
 BV BOUND     c3753   
 BV BOUND     c3754   
 BV BOUND     c3755   
 BV BOUND     c3756   
 BV BOUND     c3757   
 BV BOUND     c3758   
 BV BOUND     c3759   
 BV BOUND     c3760   
 BV BOUND     c3761   
 BV BOUND     c3762   
 BV BOUND     c3763   
 BV BOUND     c3764   
 BV BOUND     c3765   
 BV BOUND     c3766   
 BV BOUND     c3767   
 BV BOUND     c3768   
 BV BOUND     c3769   
 BV BOUND     c3770   
 BV BOUND     c3771   
 BV BOUND     c3772   
 BV BOUND     c3773   
 BV BOUND     c3774   
 BV BOUND     c3775   
 BV BOUND     c3776   
 BV BOUND     c3777   
 BV BOUND     c3778   
 BV BOUND     c3779   
 BV BOUND     c3780   
 BV BOUND     c3781   
 BV BOUND     c3782   
 BV BOUND     c3783   
 BV BOUND     c3784   
 BV BOUND     c3785   
 BV BOUND     c3786   
 BV BOUND     c3787   
 BV BOUND     c3788   
 BV BOUND     c3789   
 BV BOUND     c3790   
 BV BOUND     c3791   
 BV BOUND     c3792   
 BV BOUND     c3793   
 BV BOUND     c3794   
 BV BOUND     c3795   
 BV BOUND     c3796   
 BV BOUND     c3797   
 BV BOUND     c3798   
 BV BOUND     c3799   
 BV BOUND     c3800   
 BV BOUND     c3801   
 BV BOUND     c3802   
 BV BOUND     c3803   
 BV BOUND     c3804   
 BV BOUND     c3805   
 BV BOUND     c3806   
 BV BOUND     c3807   
 BV BOUND     c3808   
 BV BOUND     c3809   
 BV BOUND     c3810   
 BV BOUND     c3811   
 BV BOUND     c3812   
 BV BOUND     c3813   
 BV BOUND     c3814   
 BV BOUND     c3815   
 BV BOUND     c3816   
 BV BOUND     c3817   
 BV BOUND     c3818   
 BV BOUND     c3819   
 BV BOUND     c3820   
 BV BOUND     c3821   
 BV BOUND     c3822   
 BV BOUND     c3823   
 BV BOUND     c3824   
 BV BOUND     c3825   
 BV BOUND     c3826   
 BV BOUND     c3827   
 BV BOUND     c3828   
 BV BOUND     c3829   
 BV BOUND     c3830   
 BV BOUND     c3831   
 BV BOUND     c3832   
 BV BOUND     c3833   
 BV BOUND     c3834   
 BV BOUND     c3835   
 BV BOUND     c3836   
 BV BOUND     c3837   
 BV BOUND     c3838   
 BV BOUND     c3839   
 BV BOUND     c3840   
 BV BOUND     c3841   
 BV BOUND     c3842   
 BV BOUND     c3843   
 BV BOUND     c3844   
 BV BOUND     c3845   
 BV BOUND     c3846   
 BV BOUND     c3847   
 BV BOUND     c3848   
 BV BOUND     c3849   
 BV BOUND     c3850   
 BV BOUND     c3851   
 BV BOUND     c3852   
 BV BOUND     c3853   
 BV BOUND     c3854   
 BV BOUND     c3855   
 BV BOUND     c3856   
 BV BOUND     c3857   
 BV BOUND     c3858   
 BV BOUND     c3859   
 BV BOUND     c3860   
 BV BOUND     c3861   
 BV BOUND     c3862   
 BV BOUND     c3863   
 BV BOUND     c3864   
 BV BOUND     c3865   
 BV BOUND     c3866   
 BV BOUND     c3867   
 BV BOUND     c3868   
 BV BOUND     c3869   
 BV BOUND     c3870   
 BV BOUND     c3871   
 BV BOUND     c3872   
 BV BOUND     c3873   
 BV BOUND     c3874   
 BV BOUND     c3875   
 BV BOUND     c3876   
 BV BOUND     c3877   
 BV BOUND     c3878   
 BV BOUND     c3879   
 BV BOUND     c3880   
 BV BOUND     c3881   
 BV BOUND     c3882   
 BV BOUND     c3883   
 BV BOUND     c3884   
 BV BOUND     c3885   
 BV BOUND     c3886   
 BV BOUND     c3887   
 BV BOUND     c3888   
 BV BOUND     c3889   
 BV BOUND     c3890   
 BV BOUND     c3891   
 BV BOUND     c3892   
 BV BOUND     c3893   
 BV BOUND     c3894   
 BV BOUND     c3895   
 BV BOUND     c3896   
 BV BOUND     c3897   
 BV BOUND     c3898   
 BV BOUND     c3899   
 BV BOUND     c3900   
 BV BOUND     c3901   
 BV BOUND     c3902   
 BV BOUND     c3903   
 BV BOUND     c3904   
 BV BOUND     c3905   
 BV BOUND     c3906   
 BV BOUND     c3907   
 BV BOUND     c3908   
 BV BOUND     c3909   
 BV BOUND     c3910   
 BV BOUND     c3911   
 BV BOUND     c3912   
 BV BOUND     c3913   
 BV BOUND     c3914   
 BV BOUND     c3915   
 BV BOUND     c3916   
 BV BOUND     c3917   
 BV BOUND     c3918   
 BV BOUND     c3919   
 BV BOUND     c3920   
 BV BOUND     c3921   
 BV BOUND     c3922   
 BV BOUND     c3923   
 BV BOUND     c3924   
 BV BOUND     c3925   
 BV BOUND     c3926   
 BV BOUND     c3927   
 BV BOUND     c3928   
 BV BOUND     c3929   
 BV BOUND     c3930   
 BV BOUND     c3931   
 BV BOUND     c3932   
 BV BOUND     c3933   
 BV BOUND     c3934   
 BV BOUND     c3935   
 BV BOUND     c3936   
 BV BOUND     c3937   
 BV BOUND     c3938   
 BV BOUND     c3939   
 BV BOUND     c3940   
 BV BOUND     c3941   
 BV BOUND     c3942   
 BV BOUND     c3943   
 BV BOUND     c3944   
 BV BOUND     c3945   
 BV BOUND     c3946   
 BV BOUND     c3947   
 BV BOUND     c3948   
 BV BOUND     c3949   
 BV BOUND     c3950   
 BV BOUND     c3951   
 BV BOUND     c3952   
 BV BOUND     c3953   
 BV BOUND     c3954   
 BV BOUND     c3955   
 BV BOUND     c3956   
 BV BOUND     c3957   
 BV BOUND     c3958   
 BV BOUND     c3959   
 BV BOUND     c3960   
 BV BOUND     c3961   
 BV BOUND     c3962   
 BV BOUND     c3963   
 BV BOUND     c3964   
 BV BOUND     c3965   
 BV BOUND     c3966   
 BV BOUND     c3967   
 BV BOUND     c3968   
 BV BOUND     c3969   
 BV BOUND     c3970   
 BV BOUND     c3971   
 BV BOUND     c3972   
 BV BOUND     c3973   
 BV BOUND     c3974   
 BV BOUND     c3975   
 BV BOUND     c3976   
 BV BOUND     c3977   
 BV BOUND     c3978   
 BV BOUND     c3979   
 BV BOUND     c3980   
 BV BOUND     c3981   
 BV BOUND     c3982   
 BV BOUND     c3983   
 BV BOUND     c3984   
 BV BOUND     c3985   
 BV BOUND     c3986   
 BV BOUND     c3987   
 BV BOUND     c3988   
 BV BOUND     c3989   
 BV BOUND     c3990   
 BV BOUND     c3991   
 BV BOUND     c3992   
 BV BOUND     c3993   
 BV BOUND     c3994   
 BV BOUND     c3995   
 BV BOUND     c3996   
 BV BOUND     c3997   
 BV BOUND     c3998   
 BV BOUND     c3999   
 BV BOUND     c4000   
 BV BOUND     c4001   
 BV BOUND     c4002   
 BV BOUND     c4003   
 BV BOUND     c4004   
 BV BOUND     c4005   
 BV BOUND     c4006   
 BV BOUND     c4007   
 BV BOUND     c4008   
 BV BOUND     c4009   
 BV BOUND     c4010   
 BV BOUND     c4011   
 BV BOUND     c4012   
 BV BOUND     c4013   
 BV BOUND     c4014   
 BV BOUND     c4015   
 BV BOUND     c4016   
 BV BOUND     c4017   
 BV BOUND     c4018   
 BV BOUND     c4019   
 BV BOUND     c4020   
 BV BOUND     c4021   
 BV BOUND     c4022   
 BV BOUND     c4023   
 BV BOUND     c4024   
 BV BOUND     c4025   
 BV BOUND     c4026   
 BV BOUND     c4027   
 BV BOUND     c4028   
 BV BOUND     c4029   
 BV BOUND     c4030   
 BV BOUND     c4031   
 BV BOUND     c4032   
 BV BOUND     c4033   
 BV BOUND     c4034   
 BV BOUND     c4035   
 BV BOUND     c4036   
 BV BOUND     c4037   
 BV BOUND     c4038   
 BV BOUND     c4039   
 BV BOUND     c4040   
 BV BOUND     c4041   
 BV BOUND     c4042   
 BV BOUND     c4043   
 BV BOUND     c4044   
 BV BOUND     c4045   
 BV BOUND     c4046   
 BV BOUND     c4047   
 BV BOUND     c4048   
 BV BOUND     c4049   
 BV BOUND     c4050   
 BV BOUND     c4051   
 BV BOUND     c4052   
 BV BOUND     c4053   
 BV BOUND     c4054   
 BV BOUND     c4055   
 BV BOUND     c4056   
 BV BOUND     c4057   
 BV BOUND     c4058   
 BV BOUND     c4059   
 BV BOUND     c4060   
 BV BOUND     c4061   
 BV BOUND     c4062   
 BV BOUND     c4063   
 BV BOUND     c4064   
 BV BOUND     c4065   
 BV BOUND     c4066   
 BV BOUND     c4067   
 BV BOUND     c4068   
 BV BOUND     c4069   
 BV BOUND     c4070   
 BV BOUND     c4071   
 BV BOUND     c4072   
 BV BOUND     c4073   
 BV BOUND     c4074   
 BV BOUND     c4075   
 BV BOUND     c4076   
 BV BOUND     c4077   
 BV BOUND     c4078   
 BV BOUND     c4079   
 BV BOUND     c4080   
 BV BOUND     c4081   
 BV BOUND     c4082   
 BV BOUND     c4083   
 BV BOUND     c4084   
 BV BOUND     c4085   
 BV BOUND     c4086   
 BV BOUND     c4087   
 BV BOUND     c4088   
 BV BOUND     c4089   
 BV BOUND     c4090   
 BV BOUND     c4091   
 BV BOUND     c4092   
 BV BOUND     c4093   
 BV BOUND     c4094   
 BV BOUND     c4095   
 BV BOUND     c4096   
 BV BOUND     c4097   
 BV BOUND     c4098   
 BV BOUND     c4099   
 BV BOUND     c4100   
 BV BOUND     c4101   
 BV BOUND     c4102   
 BV BOUND     c4103   
 BV BOUND     c4104   
 BV BOUND     c4105   
 BV BOUND     c4106   
 BV BOUND     c4107   
 BV BOUND     c4108   
 BV BOUND     c4109   
 BV BOUND     c4110   
 BV BOUND     c4111   
 BV BOUND     c4112   
 BV BOUND     c4113   
 BV BOUND     c4114   
 BV BOUND     c4115   
 BV BOUND     c4116   
 BV BOUND     c4117   
 BV BOUND     c4118   
 BV BOUND     c4119   
 BV BOUND     c4120   
 BV BOUND     c4121   
 BV BOUND     c4122   
 BV BOUND     c4123   
 BV BOUND     c4124   
 BV BOUND     c4125   
 BV BOUND     c4126   
 BV BOUND     c4127   
 BV BOUND     c4128   
 BV BOUND     c4129   
 BV BOUND     c4130   
 BV BOUND     c4131   
 BV BOUND     c4132   
 BV BOUND     c4133   
 BV BOUND     c4134   
 BV BOUND     c4135   
 BV BOUND     c4136   
 BV BOUND     c4137   
 BV BOUND     c4138   
 BV BOUND     c4139   
 BV BOUND     c4140   
 BV BOUND     c4141   
 BV BOUND     c4142   
 BV BOUND     c4143   
 BV BOUND     c4144   
 BV BOUND     c4145   
 BV BOUND     c4146   
 BV BOUND     c4147   
 BV BOUND     c4148   
 BV BOUND     c4149   
 BV BOUND     c4150   
 BV BOUND     c4151   
 BV BOUND     c4152   
 BV BOUND     c4153   
 BV BOUND     c4154   
 BV BOUND     c4155   
 BV BOUND     c4156   
 BV BOUND     c4157   
 BV BOUND     c4158   
 BV BOUND     c4159   
 BV BOUND     c4160   
 BV BOUND     c4161   
 BV BOUND     c4162   
 BV BOUND     c4163   
 BV BOUND     c4164   
 BV BOUND     c4165   
 BV BOUND     c4166   
 BV BOUND     c4167   
 BV BOUND     c4168   
 BV BOUND     c4169   
 BV BOUND     c4170   
 BV BOUND     c4171   
 BV BOUND     c4172   
 BV BOUND     c4173   
 BV BOUND     c4174   
 BV BOUND     c4175   
 BV BOUND     c4176   
 BV BOUND     c4177   
 BV BOUND     c4178   
 BV BOUND     c4179   
 BV BOUND     c4180   
 BV BOUND     c4181   
 BV BOUND     c4182   
 BV BOUND     c4183   
 BV BOUND     c4184   
 BV BOUND     c4185   
 BV BOUND     c4186   
 BV BOUND     c4187   
 BV BOUND     c4188   
 BV BOUND     c4189   
 BV BOUND     c4190   
 BV BOUND     c4191   
 BV BOUND     c4192   
 BV BOUND     c4193   
 BV BOUND     c4194   
 BV BOUND     c4195   
 BV BOUND     c4196   
 BV BOUND     c4197   
 BV BOUND     c4198   
 BV BOUND     c4199   
 BV BOUND     c4200   
 BV BOUND     c4201   
 BV BOUND     c4202   
 BV BOUND     c4203   
 BV BOUND     c4204   
 BV BOUND     c4205   
 BV BOUND     c4206   
 BV BOUND     c4207   
 BV BOUND     c4208   
 BV BOUND     c4209   
 BV BOUND     c4210   
 BV BOUND     c4211   
 BV BOUND     c4212   
 BV BOUND     c4213   
 BV BOUND     c4214   
 BV BOUND     c4215   
 BV BOUND     c4216   
 BV BOUND     c4217   
 BV BOUND     c4218   
 BV BOUND     c4219   
 BV BOUND     c4220   
 BV BOUND     c4221   
 BV BOUND     c4222   
 BV BOUND     c4223   
 BV BOUND     c4224   
 BV BOUND     c4225   
 BV BOUND     c4226   
 BV BOUND     c4227   
 BV BOUND     c4228   
 BV BOUND     c4229   
 BV BOUND     c4230   
 BV BOUND     c4231   
 BV BOUND     c4232   
 BV BOUND     c4233   
 BV BOUND     c4234   
 BV BOUND     c4235   
 BV BOUND     c4236   
 BV BOUND     c4237   
 BV BOUND     c4238   
 BV BOUND     c4239   
 BV BOUND     c4240   
 BV BOUND     c4241   
 BV BOUND     c4242   
 BV BOUND     c4243   
 BV BOUND     c4244   
 BV BOUND     c4245   
 BV BOUND     c4246   
 BV BOUND     c4247   
 BV BOUND     c4248   
 BV BOUND     c4249   
 BV BOUND     c4250   
 BV BOUND     c4251   
 BV BOUND     c4252   
 BV BOUND     c4253   
 BV BOUND     c4254   
 BV BOUND     c4255   
 BV BOUND     c4256   
 BV BOUND     c4257   
 BV BOUND     c4258   
 BV BOUND     c4259   
 BV BOUND     c4260   
 BV BOUND     c4261   
 BV BOUND     c4262   
 BV BOUND     c4263   
 BV BOUND     c4264   
 BV BOUND     c4265   
 BV BOUND     c4266   
 BV BOUND     c4267   
 BV BOUND     c4268   
 BV BOUND     c4269   
 BV BOUND     c4270   
 BV BOUND     c4271   
 BV BOUND     c4272   
 BV BOUND     c4273   
 BV BOUND     c4274   
 BV BOUND     c4275   
 BV BOUND     c4276   
 BV BOUND     c4277   
 BV BOUND     c4278   
 BV BOUND     c4279   
 BV BOUND     c4280   
 BV BOUND     c4281   
 BV BOUND     c4282   
 BV BOUND     c4283   
 BV BOUND     c4284   
 BV BOUND     c4285   
 BV BOUND     c4286   
 BV BOUND     c4287   
 BV BOUND     c4288   
 BV BOUND     c4289   
 BV BOUND     c4290   
 BV BOUND     c4291   
 BV BOUND     c4292   
 BV BOUND     c4293   
 BV BOUND     c4294   
 BV BOUND     c4295   
 BV BOUND     c4296   
 BV BOUND     c4297   
 BV BOUND     c4298   
 BV BOUND     c4299   
 BV BOUND     c4300   
 BV BOUND     c4301   
 BV BOUND     c4302   
 BV BOUND     c4303   
 BV BOUND     c4304   
 BV BOUND     c4305   
 BV BOUND     c4306   
 BV BOUND     c4307   
 BV BOUND     c4308   
 BV BOUND     c4309   
 BV BOUND     c4310   
 BV BOUND     c4311   
 BV BOUND     c4312   
 BV BOUND     c4313   
 BV BOUND     c4314   
 BV BOUND     c4315   
 BV BOUND     c4316   
 BV BOUND     c4317   
 BV BOUND     c4318   
 BV BOUND     c4319   
 BV BOUND     c4320   
 BV BOUND     c4321   
 BV BOUND     c4322   
 BV BOUND     c4323   
 BV BOUND     c4324   
 BV BOUND     c4325   
 BV BOUND     c4326   
 BV BOUND     c4327   
 BV BOUND     c4328   
 BV BOUND     c4329   
 BV BOUND     c4330   
 BV BOUND     c4331   
 BV BOUND     c4332   
 BV BOUND     c4333   
 BV BOUND     c4334   
 BV BOUND     c4335   
 BV BOUND     c4336   
 BV BOUND     c4337   
 BV BOUND     c4338   
 BV BOUND     c4339   
 BV BOUND     c4340   
 BV BOUND     c4341   
 BV BOUND     c4342   
 BV BOUND     c4343   
 BV BOUND     c4344   
 BV BOUND     c4345   
 BV BOUND     c4346   
 BV BOUND     c4347   
 BV BOUND     c4348   
 BV BOUND     c4349   
 BV BOUND     c4350   
 BV BOUND     c4351   
 BV BOUND     c4352   
 BV BOUND     c4353   
 BV BOUND     c4354   
 BV BOUND     c4355   
 BV BOUND     c4356   
 BV BOUND     c4357   
 BV BOUND     c4358   
 BV BOUND     c4359   
 BV BOUND     c4360   
 BV BOUND     c4361   
 BV BOUND     c4362   
 BV BOUND     c4363   
 BV BOUND     c4364   
 BV BOUND     c4365   
 BV BOUND     c4366   
 BV BOUND     c4367   
 BV BOUND     c4368   
 BV BOUND     c4369   
 BV BOUND     c4370   
 BV BOUND     c4371   
 BV BOUND     c4372   
 BV BOUND     c4373   
 BV BOUND     c4374   
 BV BOUND     c4375   
 BV BOUND     c4376   
 BV BOUND     c4377   
 BV BOUND     c4378   
 BV BOUND     c4379   
 BV BOUND     c4380   
 BV BOUND     c4381   
 BV BOUND     c4382   
 BV BOUND     c4383   
 BV BOUND     c4384   
 BV BOUND     c4385   
 BV BOUND     c4386   
 BV BOUND     c4387   
 BV BOUND     c4388   
 BV BOUND     c4389   
 BV BOUND     c4390   
 BV BOUND     c4391   
 BV BOUND     c4392   
 BV BOUND     c4393   
 BV BOUND     c4394   
 BV BOUND     c4395   
 BV BOUND     c4396   
 BV BOUND     c4397   
 BV BOUND     c4398   
 BV BOUND     c4399   
 BV BOUND     c4400   
 BV BOUND     c4401   
 BV BOUND     c4402   
 BV BOUND     c4403   
 BV BOUND     c4404   
 BV BOUND     c4405   
 BV BOUND     c4406   
 BV BOUND     c4407   
 BV BOUND     c4408   
 BV BOUND     c4409   
 BV BOUND     c4410   
 BV BOUND     c4411   
 BV BOUND     c4412   
 BV BOUND     c4413   
 BV BOUND     c4414   
 BV BOUND     c4415   
 BV BOUND     c4416   
 BV BOUND     c4417   
 BV BOUND     c4418   
 BV BOUND     c4419   
 BV BOUND     c4420   
 BV BOUND     c4421   
 BV BOUND     c4422   
 BV BOUND     c4423   
 BV BOUND     c4424   
 BV BOUND     c4425   
 BV BOUND     c4426   
 BV BOUND     c4427   
 BV BOUND     c4428   
 BV BOUND     c4429   
 BV BOUND     c4430   
 BV BOUND     c4431   
 BV BOUND     c4432   
 BV BOUND     c4433   
 BV BOUND     c4434   
 BV BOUND     c4435   
 BV BOUND     c4436   
 BV BOUND     c4437   
 BV BOUND     c4438   
 BV BOUND     c4439   
 BV BOUND     c4440   
 BV BOUND     c4441   
 BV BOUND     c4442   
 BV BOUND     c4443   
 BV BOUND     c4444   
 BV BOUND     c4445   
 BV BOUND     c4446   
 BV BOUND     c4447   
 BV BOUND     c4448   
 BV BOUND     c4449   
 BV BOUND     c4450   
 BV BOUND     c4451   
 BV BOUND     c4452   
 BV BOUND     c4453   
 BV BOUND     c4454   
 BV BOUND     c4455   
 BV BOUND     c4456   
 BV BOUND     c4457   
 BV BOUND     c4458   
 BV BOUND     c4459   
 BV BOUND     c4460   
 BV BOUND     c4461   
 BV BOUND     c4462   
 BV BOUND     c4463   
 BV BOUND     c4464   
 BV BOUND     c4465   
 BV BOUND     c4466   
 BV BOUND     c4467   
 BV BOUND     c4468   
 BV BOUND     c4469   
 BV BOUND     c4470   
 BV BOUND     c4471   
 BV BOUND     c4472   
 BV BOUND     c4473   
 BV BOUND     c4474   
 BV BOUND     c4475   
 BV BOUND     c4476   
 BV BOUND     c4477   
 BV BOUND     c4478   
 BV BOUND     c4479   
 BV BOUND     c4480   
 BV BOUND     c4481   
 BV BOUND     c4482   
 BV BOUND     c4483   
 BV BOUND     c4484   
 BV BOUND     c4485   
 BV BOUND     c4486   
 BV BOUND     c4487   
 BV BOUND     c4488   
 BV BOUND     c4489   
 BV BOUND     c4490   
 BV BOUND     c4491   
 BV BOUND     c4492   
 BV BOUND     c4493   
 BV BOUND     c4494   
 BV BOUND     c4495   
 BV BOUND     c4496   
 BV BOUND     c4497   
 BV BOUND     c4498   
 BV BOUND     c4499   
 BV BOUND     c4500   
 BV BOUND     c4501   
 BV BOUND     c4502   
 BV BOUND     c4503   
 BV BOUND     c4504   
 BV BOUND     c4505   
 BV BOUND     c4506   
 BV BOUND     c4507   
 BV BOUND     c4508   
 BV BOUND     c4509   
 BV BOUND     c4510   
 BV BOUND     c4511   
 BV BOUND     c4512   
 BV BOUND     c4513   
 BV BOUND     c4514   
 BV BOUND     c4515   
 BV BOUND     c4516   
 BV BOUND     c4517   
 BV BOUND     c4518   
 BV BOUND     c4519   
 BV BOUND     c4520   
 BV BOUND     c4521   
 BV BOUND     c4522   
 BV BOUND     c4523   
 BV BOUND     c4524   
 BV BOUND     c4525   
 BV BOUND     c4526   
 BV BOUND     c4527   
 BV BOUND     c4528   
 BV BOUND     c4529   
 BV BOUND     c4530   
 BV BOUND     c4531   
 BV BOUND     c4532   
 BV BOUND     c4533   
 BV BOUND     c4534   
 BV BOUND     c4535   
 BV BOUND     c4536   
 BV BOUND     c4537   
 BV BOUND     c4538   
 BV BOUND     c4539   
 BV BOUND     c4540   
 BV BOUND     c4541   
 BV BOUND     c4542   
 BV BOUND     c4543   
 BV BOUND     c4544   
 BV BOUND     c4545   
 BV BOUND     c4546   
 BV BOUND     c4547   
 BV BOUND     c4548   
 BV BOUND     c4549   
 BV BOUND     c4550   
 BV BOUND     c4551   
 BV BOUND     c4552   
 BV BOUND     c4553   
 BV BOUND     c4554   
 BV BOUND     c4555   
 BV BOUND     c4556   
 BV BOUND     c4557   
 BV BOUND     c4558   
 BV BOUND     c4559   
 BV BOUND     c4560   
 BV BOUND     c4561   
 BV BOUND     c4562   
 BV BOUND     c4563   
 BV BOUND     c4564   
 BV BOUND     c4565   
 BV BOUND     c4566   
 BV BOUND     c4567   
 BV BOUND     c4568   
 BV BOUND     c4569   
 BV BOUND     c4570   
 BV BOUND     c4571   
 BV BOUND     c4572   
 BV BOUND     c4573   
 BV BOUND     c4574   
 BV BOUND     c4575   
 BV BOUND     c4576   
 BV BOUND     c4577   
 BV BOUND     c4578   
 BV BOUND     c4579   
 BV BOUND     c4580   
 BV BOUND     c4581   
 BV BOUND     c4582   
 BV BOUND     c4583   
 BV BOUND     c4584   
 BV BOUND     c4585   
 BV BOUND     c4586   
 BV BOUND     c4587   
 BV BOUND     c4588   
 BV BOUND     c4589   
 BV BOUND     c4590   
 BV BOUND     c4591   
 BV BOUND     c4592   
 BV BOUND     c4593   
 BV BOUND     c4594   
 BV BOUND     c4595   
 BV BOUND     c4596   
 BV BOUND     c4597   
 BV BOUND     c4598   
 BV BOUND     c4599   
 BV BOUND     c4600   
 BV BOUND     c4601   
 BV BOUND     c4602   
 BV BOUND     c4603   
 BV BOUND     c4604   
 BV BOUND     c4605   
 BV BOUND     c4606   
 BV BOUND     c4607   
 BV BOUND     c4608   
 BV BOUND     c4609   
 BV BOUND     c4610   
 BV BOUND     c4611   
 BV BOUND     c4612   
 BV BOUND     c4613   
 BV BOUND     c4614   
 BV BOUND     c4615   
 BV BOUND     c4616   
 BV BOUND     c4617   
 BV BOUND     c4618   
 BV BOUND     c4619   
 BV BOUND     c4620   
 BV BOUND     c4621   
 BV BOUND     c4622   
 BV BOUND     c4623   
 BV BOUND     c4624   
 BV BOUND     c4625   
 BV BOUND     c4626   
 BV BOUND     c4627   
 BV BOUND     c4628   
 BV BOUND     c4629   
 BV BOUND     c4630   
 BV BOUND     c4631   
 BV BOUND     c4632   
 BV BOUND     c4633   
 BV BOUND     c4634   
 BV BOUND     c4635   
 BV BOUND     c4636   
 BV BOUND     c4637   
 BV BOUND     c4638   
 BV BOUND     c4639   
 BV BOUND     c4640   
 BV BOUND     c4641   
 BV BOUND     c4642   
 BV BOUND     c4643   
 BV BOUND     c4644   
 BV BOUND     c4645   
 BV BOUND     c4646   
 BV BOUND     c4647   
 BV BOUND     c4648   
 BV BOUND     c4649   
 BV BOUND     c4650   
 BV BOUND     c4651   
 BV BOUND     c4652   
 BV BOUND     c4653   
 BV BOUND     c4654   
 BV BOUND     c4655   
 BV BOUND     c4656   
 BV BOUND     c4657   
 BV BOUND     c4658   
 BV BOUND     c4659   
 BV BOUND     c4660   
 BV BOUND     c4661   
 BV BOUND     c4662   
 BV BOUND     c4663   
 BV BOUND     c4664   
 BV BOUND     c4665   
 BV BOUND     c4666   
 BV BOUND     c4667   
 BV BOUND     c4668   
 BV BOUND     c4669   
 BV BOUND     c4670   
 BV BOUND     c4671   
 BV BOUND     c4672   
 BV BOUND     c4673   
 BV BOUND     c4674   
 BV BOUND     c4675   
 BV BOUND     c4676   
 BV BOUND     c4677   
 BV BOUND     c4678   
 BV BOUND     c4679   
 BV BOUND     c4680   
 BV BOUND     c4681   
 BV BOUND     c4682   
 BV BOUND     c4683   
 BV BOUND     c4684   
 BV BOUND     c4685   
 BV BOUND     c4686   
 BV BOUND     c4687   
 BV BOUND     c4688   
 BV BOUND     c4689   
 BV BOUND     c4690   
 BV BOUND     c4691   
 BV BOUND     c4692   
 BV BOUND     c4693   
 BV BOUND     c4694   
 BV BOUND     c4695   
 BV BOUND     c4696   
 BV BOUND     c4697   
 BV BOUND     c4698   
 BV BOUND     c4699   
 BV BOUND     c4700   
 BV BOUND     c4701   
 BV BOUND     c4702   
 BV BOUND     c4703   
 BV BOUND     c4704   
 BV BOUND     c4705   
 BV BOUND     c4706   
 BV BOUND     c4707   
 BV BOUND     c4708   
 BV BOUND     c4709   
 BV BOUND     c4710   
 BV BOUND     c4711   
 BV BOUND     c4712   
 BV BOUND     c4713   
 BV BOUND     c4714   
 BV BOUND     c4715   
 BV BOUND     c4716   
 BV BOUND     c4717   
 BV BOUND     c4718   
 BV BOUND     c4719   
 BV BOUND     c4720   
 BV BOUND     c4721   
 BV BOUND     c4722   
 BV BOUND     c4723   
 BV BOUND     c4724   
 BV BOUND     c4725   
 BV BOUND     c4726   
 BV BOUND     c4727   
 BV BOUND     c4728   
 BV BOUND     c4729   
 BV BOUND     c4730   
 BV BOUND     c4731   
 BV BOUND     c4732   
 BV BOUND     c4733   
 BV BOUND     c4734   
 BV BOUND     c4735   
 BV BOUND     c4736   
 BV BOUND     c4737   
 BV BOUND     c4738   
 BV BOUND     c4739   
 BV BOUND     c4740   
 BV BOUND     c4741   
 BV BOUND     c4742   
 BV BOUND     c4743   
 BV BOUND     c4744   
 BV BOUND     c4745   
 BV BOUND     c4746   
 BV BOUND     c4747   
 BV BOUND     c4748   
 BV BOUND     c4749   
 BV BOUND     c4750   
 BV BOUND     c4751   
 BV BOUND     c4752   
 BV BOUND     c4753   
 BV BOUND     c4754   
 BV BOUND     c4755   
 BV BOUND     c4756   
 BV BOUND     c4757   
 BV BOUND     c4758   
 BV BOUND     c4759   
 BV BOUND     c4760   
 BV BOUND     c4761   
 BV BOUND     c4762   
 BV BOUND     c4763   
 BV BOUND     c4764   
 BV BOUND     c4765   
 BV BOUND     c4766   
 BV BOUND     c4767   
 BV BOUND     c4768   
 BV BOUND     c4769   
 BV BOUND     c4770   
 BV BOUND     c4771   
 BV BOUND     c4772   
 BV BOUND     c4773   
 BV BOUND     c4774   
 BV BOUND     c4775   
 BV BOUND     c4776   
 BV BOUND     c4777   
 BV BOUND     c4778   
 BV BOUND     c4779   
 BV BOUND     c4780   
 BV BOUND     c4781   
 BV BOUND     c4782   
 BV BOUND     c4783   
 BV BOUND     c4784   
 BV BOUND     c4785   
 BV BOUND     c4786   
 BV BOUND     c4787   
 BV BOUND     c4788   
 BV BOUND     c4789   
 BV BOUND     c4790   
 BV BOUND     c4791   
 BV BOUND     c4792   
 BV BOUND     c4793   
 BV BOUND     c4794   
 BV BOUND     c4795   
 BV BOUND     c4796   
 BV BOUND     c4797   
 BV BOUND     c4798   
 BV BOUND     c4799   
 BV BOUND     c4800   
 BV BOUND     c4801   
 BV BOUND     c4802   
 BV BOUND     c4803   
 BV BOUND     c4804   
 BV BOUND     c4805   
 BV BOUND     c4806   
 BV BOUND     c4807   
 BV BOUND     c4808   
 BV BOUND     c4809   
 BV BOUND     c4810   
 BV BOUND     c4811   
 BV BOUND     c4812   
 BV BOUND     c4813   
 BV BOUND     c4814   
 BV BOUND     c4815   
 BV BOUND     c4816   
 BV BOUND     c4817   
 BV BOUND     c4818   
 BV BOUND     c4819   
 BV BOUND     c4820   
 BV BOUND     c4821   
 BV BOUND     c4822   
 BV BOUND     c4823   
 BV BOUND     c4824   
 BV BOUND     c4825   
 BV BOUND     c4826   
 BV BOUND     c4827   
 BV BOUND     c4828   
 BV BOUND     c4829   
 BV BOUND     c4830   
 BV BOUND     c4831   
 BV BOUND     c4832   
 BV BOUND     c4833   
 BV BOUND     c4834   
 BV BOUND     c4835   
 BV BOUND     c4836   
 BV BOUND     c4837   
 BV BOUND     c4838   
 BV BOUND     c4839   
 BV BOUND     c4840   
 BV BOUND     c4841   
 BV BOUND     c4842   
 BV BOUND     c4843   
 BV BOUND     c4844   
 BV BOUND     c4845   
 BV BOUND     c4846   
 BV BOUND     c4847   
 BV BOUND     c4848   
 BV BOUND     c4849   
 BV BOUND     c4850   
 BV BOUND     c4851   
 BV BOUND     c4852   
 BV BOUND     c4853   
 BV BOUND     c4854   
 BV BOUND     c4855   
 BV BOUND     c4856   
 BV BOUND     c4857   
 BV BOUND     c4858   
 BV BOUND     c4859   
 BV BOUND     c4860   
 BV BOUND     c4861   
 BV BOUND     c4862   
 BV BOUND     c4863   
 BV BOUND     c4864   
 BV BOUND     c4865   
 BV BOUND     c4866   
 BV BOUND     c4867   
 BV BOUND     c4868   
 BV BOUND     c4869   
 BV BOUND     c4870   
 BV BOUND     c4871   
 BV BOUND     c4872   
 BV BOUND     c4873   
 BV BOUND     c4874   
 BV BOUND     c4875   
 BV BOUND     c4876   
 BV BOUND     c4877   
 BV BOUND     c4878   
 BV BOUND     c4879   
 BV BOUND     c4880   
 BV BOUND     c4881   
 BV BOUND     c4882   
 BV BOUND     c4883   
 BV BOUND     c4884   
 BV BOUND     c4885   
 BV BOUND     c4886   
 BV BOUND     c4887   
 BV BOUND     c4888   
 BV BOUND     c4889   
 BV BOUND     c4890   
 BV BOUND     c4891   
 BV BOUND     c4892   
 BV BOUND     c4893   
 BV BOUND     c4894   
 BV BOUND     c4895   
 BV BOUND     c4896   
 BV BOUND     c4897   
 BV BOUND     c4898   
 BV BOUND     c4899   
 BV BOUND     c4900   
 BV BOUND     c4901   
 BV BOUND     c4902   
 BV BOUND     c4903   
 BV BOUND     c4904   
 BV BOUND     c4905   
 BV BOUND     c4906   
 BV BOUND     c4907   
 BV BOUND     c4908   
 BV BOUND     c4909   
 BV BOUND     c4910   
 BV BOUND     c4911   
 BV BOUND     c4912   
 BV BOUND     c4913   
 BV BOUND     c4914   
 BV BOUND     c4915   
 BV BOUND     c4916   
 BV BOUND     c4917   
 BV BOUND     c4918   
 BV BOUND     c4919   
 BV BOUND     c4920   
 BV BOUND     c4921   
 BV BOUND     c4922   
 BV BOUND     c4923   
 BV BOUND     c4924   
 BV BOUND     c4925   
 BV BOUND     c4926   
 BV BOUND     c4927   
 BV BOUND     c4928   
 BV BOUND     c4929   
 BV BOUND     c4930   
 BV BOUND     c4931   
 BV BOUND     c4932   
 BV BOUND     c4933   
 BV BOUND     c4934   
 BV BOUND     c4935   
 BV BOUND     c4936   
 BV BOUND     c4937   
 BV BOUND     c4938   
 BV BOUND     c4939   
 BV BOUND     c4940   
 BV BOUND     c4941   
 BV BOUND     c4942   
 BV BOUND     c4943   
 BV BOUND     c4944   
 BV BOUND     c4945   
 BV BOUND     c4946   
 BV BOUND     c4947   
 BV BOUND     c4948   
 BV BOUND     c4949   
 BV BOUND     c4950   
 BV BOUND     c4951   
 BV BOUND     c4952   
 BV BOUND     c4953   
 BV BOUND     c4954   
 BV BOUND     c4955   
 BV BOUND     c4956   
 BV BOUND     c4957   
 BV BOUND     c4958   
 BV BOUND     c4959   
 BV BOUND     c4960   
 BV BOUND     c4961   
 BV BOUND     c4962   
 BV BOUND     c4963   
 BV BOUND     c4964   
 BV BOUND     c4965   
 BV BOUND     c4966   
 BV BOUND     c4967   
 BV BOUND     c4968   
 BV BOUND     c4969   
 BV BOUND     c4970   
 BV BOUND     c4971   
 BV BOUND     c4972   
 BV BOUND     c4973   
 BV BOUND     c4974   
 BV BOUND     c4975   
 BV BOUND     c4976   
 BV BOUND     c4977   
 BV BOUND     c4978   
 BV BOUND     c4979   
 BV BOUND     c4980   
 BV BOUND     c4981   
 BV BOUND     c4982   
 BV BOUND     c4983   
 BV BOUND     c4984   
 BV BOUND     c4985   
 BV BOUND     c4986   
 BV BOUND     c4987   
 BV BOUND     c4988   
 BV BOUND     c4989   
 BV BOUND     c4990   
 BV BOUND     c4991   
 BV BOUND     c4992   
 BV BOUND     c4993   
 BV BOUND     c4994   
 BV BOUND     c4995   
 BV BOUND     c4996   
 BV BOUND     c4997   
 BV BOUND     c4998   
 BV BOUND     c4999   
 BV BOUND     c5000   
 BV BOUND     c5001   
 BV BOUND     c5002   
 BV BOUND     c5003   
 BV BOUND     c5004   
 BV BOUND     c5005   
 BV BOUND     c5006   
 BV BOUND     c5007   
 BV BOUND     c5008   
 BV BOUND     c5009   
 BV BOUND     c5010   
 BV BOUND     c5011   
 BV BOUND     c5012   
 BV BOUND     c5013   
 BV BOUND     c5014   
 BV BOUND     c5015   
 BV BOUND     c5016   
 BV BOUND     c5017   
 BV BOUND     c5018   
 BV BOUND     c5019   
 BV BOUND     c5020   
 BV BOUND     c5021   
 BV BOUND     c5022   
 BV BOUND     c5023   
 BV BOUND     c5024   
 BV BOUND     c5025   
 BV BOUND     c5026   
 BV BOUND     c5027   
 BV BOUND     c5028   
 BV BOUND     c5029   
 BV BOUND     c5030   
 BV BOUND     c5031   
 BV BOUND     c5032   
 BV BOUND     c5033   
 BV BOUND     c5034   
 BV BOUND     c5035   
 BV BOUND     c5036   
 BV BOUND     c5037   
 BV BOUND     c5038   
 BV BOUND     c5039   
 BV BOUND     c5040   
 BV BOUND     c5041   
 BV BOUND     c5042   
 BV BOUND     c5043   
 BV BOUND     c5044   
 BV BOUND     c5045   
 BV BOUND     c5046   
 BV BOUND     c5047   
 BV BOUND     c5048   
 BV BOUND     c5049   
 BV BOUND     c5050   
 BV BOUND     c5051   
 BV BOUND     c5052   
 BV BOUND     c5053   
 BV BOUND     c5054   
 BV BOUND     c5055   
 BV BOUND     c5056   
 BV BOUND     c5057   
 BV BOUND     c5058   
 BV BOUND     c5059   
 BV BOUND     c5060   
 BV BOUND     c5061   
 BV BOUND     c5062   
 BV BOUND     c5063   
 BV BOUND     c5064   
 BV BOUND     c5065   
 BV BOUND     c5066   
 BV BOUND     c5067   
 BV BOUND     c5068   
 BV BOUND     c5069   
 BV BOUND     c5070   
 BV BOUND     c5071   
 BV BOUND     c5072   
 BV BOUND     c5073   
 BV BOUND     c5074   
 BV BOUND     c5075   
 BV BOUND     c5076   
 BV BOUND     c5077   
 BV BOUND     c5078   
 BV BOUND     c5079   
 BV BOUND     c5080   
 BV BOUND     c5081   
 BV BOUND     c5082   
 BV BOUND     c5083   
 BV BOUND     c5084   
 BV BOUND     c5085   
 BV BOUND     c5086   
 BV BOUND     c5087   
 BV BOUND     c5088   
 BV BOUND     c5089   
 BV BOUND     c5090   
 BV BOUND     c5091   
 BV BOUND     c5092   
 BV BOUND     c5093   
 BV BOUND     c5094   
 BV BOUND     c5095   
 BV BOUND     c5096   
 BV BOUND     c5097   
 BV BOUND     c5098   
 BV BOUND     c5099   
 BV BOUND     c5100   
 BV BOUND     c5101   
 BV BOUND     c5102   
 BV BOUND     c5103   
 BV BOUND     c5104   
 BV BOUND     c5105   
 BV BOUND     c5106   
 BV BOUND     c5107   
 BV BOUND     c5108   
 BV BOUND     c5109   
 BV BOUND     c5110   
 BV BOUND     c5111   
 BV BOUND     c5112   
 BV BOUND     c5113   
 BV BOUND     c5114   
 BV BOUND     c5115   
 BV BOUND     c5116   
 BV BOUND     c5117   
 BV BOUND     c5118   
 BV BOUND     c5119   
 BV BOUND     c5120   
 BV BOUND     c5121   
 BV BOUND     c5122   
 BV BOUND     c5123   
 BV BOUND     c5124   
 BV BOUND     c5125   
 BV BOUND     c5126   
 BV BOUND     c5127   
 BV BOUND     c5128   
 BV BOUND     c5129   
 BV BOUND     c5130   
 BV BOUND     c5131   
 BV BOUND     c5132   
 BV BOUND     c5133   
 BV BOUND     c5134   
 BV BOUND     c5135   
 BV BOUND     c5136   
 BV BOUND     c5137   
 BV BOUND     c5138   
 BV BOUND     c5139   
 BV BOUND     c5140   
 BV BOUND     c5141   
 BV BOUND     c5142   
 BV BOUND     c5143   
 BV BOUND     c5144   
 BV BOUND     c5145   
 BV BOUND     c5146   
 BV BOUND     c5147   
 BV BOUND     c5148   
 BV BOUND     c5149   
 BV BOUND     c5150   
 BV BOUND     c5151   
 BV BOUND     c5152   
 BV BOUND     c5153   
 BV BOUND     c5154   
 BV BOUND     c5155   
 BV BOUND     c5156   
 BV BOUND     c5157   
 BV BOUND     c5158   
 BV BOUND     c5159   
 BV BOUND     c5160   
 BV BOUND     c5161   
 BV BOUND     c5162   
 BV BOUND     c5163   
 BV BOUND     c5164   
 BV BOUND     c5165   
 BV BOUND     c5166   
 BV BOUND     c5167   
 BV BOUND     c5168   
 BV BOUND     c5169   
 BV BOUND     c5170   
 BV BOUND     c5171   
 BV BOUND     c5172   
 BV BOUND     c5173   
 BV BOUND     c5174   
 BV BOUND     c5175   
 BV BOUND     c5176   
 BV BOUND     c5177   
 BV BOUND     c5178   
 BV BOUND     c5179   
 BV BOUND     c5180   
 BV BOUND     c5181   
 BV BOUND     c5182   
 BV BOUND     c5183   
 BV BOUND     c5184   
 BV BOUND     c5185   
 BV BOUND     c5186   
 BV BOUND     c5187   
 BV BOUND     c5188   
 BV BOUND     c5189   
 BV BOUND     c5190   
 BV BOUND     c5191   
 BV BOUND     c5192   
 BV BOUND     c5193   
 BV BOUND     c5194   
 BV BOUND     c5195   
 BV BOUND     c5196   
 BV BOUND     c5197   
 BV BOUND     c5198   
 BV BOUND     c5199   
 BV BOUND     c5200   
 BV BOUND     c5201   
 BV BOUND     c5202   
 BV BOUND     c5203   
 BV BOUND     c5204   
 BV BOUND     c5205   
 BV BOUND     c5206   
 BV BOUND     c5207   
 BV BOUND     c5208   
 BV BOUND     c5209   
 BV BOUND     c5210   
 BV BOUND     c5211   
 BV BOUND     c5212   
 BV BOUND     c5213   
 BV BOUND     c5214   
 BV BOUND     c5215   
 BV BOUND     c5216   
 BV BOUND     c5217   
 BV BOUND     c5218   
 BV BOUND     c5219   
 BV BOUND     c5220   
 BV BOUND     c5221   
 BV BOUND     c5222   
 BV BOUND     c5223   
 BV BOUND     c5224   
 BV BOUND     c5225   
 BV BOUND     c5226   
 BV BOUND     c5227   
 BV BOUND     c5228   
 BV BOUND     c5229   
 BV BOUND     c5230   
 BV BOUND     c5231   
 BV BOUND     c5232   
 BV BOUND     c5233   
 BV BOUND     c5234   
 BV BOUND     c5235   
 BV BOUND     c5236   
 BV BOUND     c5237   
 BV BOUND     c5238   
 BV BOUND     c5239   
 BV BOUND     c5240   
 BV BOUND     c5241   
 BV BOUND     c5242   
 BV BOUND     c5243   
 BV BOUND     c5244   
 BV BOUND     c5245   
 BV BOUND     c5246   
 BV BOUND     c5247   
 BV BOUND     c5248   
 BV BOUND     c5249   
 BV BOUND     c5250   
 BV BOUND     c5251   
 BV BOUND     c5252   
 BV BOUND     c5253   
 BV BOUND     c5254   
 BV BOUND     c5255   
 BV BOUND     c5256   
 BV BOUND     c5257   
 BV BOUND     c5258   
 BV BOUND     c5259   
 BV BOUND     c5260   
 BV BOUND     c5261   
 BV BOUND     c5262   
 BV BOUND     c5263   
 BV BOUND     c5264   
 BV BOUND     c5265   
 BV BOUND     c5266   
 BV BOUND     c5267   
 BV BOUND     c5268   
 BV BOUND     c5269   
 BV BOUND     c5270   
 BV BOUND     c5271   
 BV BOUND     c5272   
 BV BOUND     c5273   
 BV BOUND     c5274   
 BV BOUND     c5275   
 BV BOUND     c5276   
 BV BOUND     c5277   
 BV BOUND     c5278   
 BV BOUND     c5279   
 BV BOUND     c5280   
 BV BOUND     c5281   
 BV BOUND     c5282   
 BV BOUND     c5283   
 BV BOUND     c5284   
 BV BOUND     c5285   
 BV BOUND     c5286   
 BV BOUND     c5287   
 BV BOUND     c5288   
 BV BOUND     c5289   
 BV BOUND     c5290   
 BV BOUND     c5291   
 BV BOUND     c5292   
 BV BOUND     c5293   
 BV BOUND     c5294   
 BV BOUND     c5295   
 BV BOUND     c5296   
 BV BOUND     c5297   
 BV BOUND     c5298   
 BV BOUND     c5299   
 BV BOUND     c5300   
 BV BOUND     c5301   
 BV BOUND     c5302   
 BV BOUND     c5303   
 BV BOUND     c5304   
 BV BOUND     c5305   
 BV BOUND     c5306   
 BV BOUND     c5307   
 BV BOUND     c5308   
 BV BOUND     c5309   
 BV BOUND     c5310   
 BV BOUND     c5311   
 BV BOUND     c5312   
 BV BOUND     c5313   
 BV BOUND     c5314   
 BV BOUND     c5315   
 BV BOUND     c5316   
 BV BOUND     c5317   
 BV BOUND     c5318   
 BV BOUND     c5319   
 BV BOUND     c5320   
 BV BOUND     c5321   
 BV BOUND     c5322   
 BV BOUND     c5323   
 BV BOUND     c5324   
 BV BOUND     c5325   
 BV BOUND     c5326   
 BV BOUND     c5327   
 BV BOUND     c5328   
 BV BOUND     c5329   
 BV BOUND     c5330   
 BV BOUND     c5331   
 BV BOUND     c5332   
 BV BOUND     c5333   
 BV BOUND     c5334   
 BV BOUND     c5335   
 BV BOUND     c5336   
 BV BOUND     c5337   
 BV BOUND     c5338   
 BV BOUND     c5339   
 BV BOUND     c5340   
 BV BOUND     c5341   
 BV BOUND     c5342   
 BV BOUND     c5343   
 BV BOUND     c5344   
 BV BOUND     c5345   
 BV BOUND     c5346   
 BV BOUND     c5347   
 BV BOUND     c5348   
 BV BOUND     c5349   
 BV BOUND     c5350   
 BV BOUND     c5351   
 BV BOUND     c5352   
 BV BOUND     c5353   
 BV BOUND     c5354   
 BV BOUND     c5355   
 BV BOUND     c5356   
 BV BOUND     c5357   
 BV BOUND     c5358   
 BV BOUND     c5359   
 BV BOUND     c5360   
 BV BOUND     c5361   
 BV BOUND     c5362   
 BV BOUND     c5363   
 BV BOUND     c5364   
 BV BOUND     c5365   
 BV BOUND     c5366   
 BV BOUND     c5367   
 BV BOUND     c5368   
 BV BOUND     c5369   
 BV BOUND     c5370   
 BV BOUND     c5371   
 BV BOUND     c5372   
 BV BOUND     c5373   
 BV BOUND     c5374   
 BV BOUND     c5375   
 BV BOUND     c5376   
 BV BOUND     c5377   
 BV BOUND     c5378   
 BV BOUND     c5379   
 BV BOUND     c5380   
 BV BOUND     c5381   
 BV BOUND     c5382   
 BV BOUND     c5383   
 BV BOUND     c5384   
 BV BOUND     c5385   
 BV BOUND     c5386   
 BV BOUND     c5387   
 BV BOUND     c5388   
 BV BOUND     c5389   
 BV BOUND     c5390   
 BV BOUND     c5391   
 BV BOUND     c5392   
 BV BOUND     c5393   
 BV BOUND     c5394   
 BV BOUND     c5395   
 BV BOUND     c5396   
 BV BOUND     c5397   
 BV BOUND     c5398   
 BV BOUND     c5399   
 BV BOUND     c5400   
 BV BOUND     c5401   
 BV BOUND     c5402   
 BV BOUND     c5403   
 BV BOUND     c5404   
 BV BOUND     c5405   
 BV BOUND     c5406   
 BV BOUND     c5407   
 BV BOUND     c5408   
 BV BOUND     c5409   
 BV BOUND     c5410   
 BV BOUND     c5411   
 BV BOUND     c5412   
 BV BOUND     c5413   
 BV BOUND     c5414   
 BV BOUND     c5415   
 BV BOUND     c5416   
 BV BOUND     c5417   
 BV BOUND     c5418   
 BV BOUND     c5419   
 BV BOUND     c5420   
 BV BOUND     c5421   
 BV BOUND     c5422   
 BV BOUND     c5423   
 BV BOUND     c5424   
 BV BOUND     c5425   
 BV BOUND     c5426   
 BV BOUND     c5427   
 BV BOUND     c5428   
 BV BOUND     c5429   
 BV BOUND     c5430   
 BV BOUND     c5431   
 BV BOUND     c5432   
 BV BOUND     c5433   
 BV BOUND     c5434   
 BV BOUND     c5435   
 BV BOUND     c5436   
 BV BOUND     c5437   
 BV BOUND     c5438   
 BV BOUND     c5439   
 BV BOUND     c5440   
 BV BOUND     c5441   
 BV BOUND     c5442   
 BV BOUND     c5443   
 BV BOUND     c5444   
 BV BOUND     c5445   
 BV BOUND     c5446   
 BV BOUND     c5447   
 BV BOUND     c5448   
 BV BOUND     c5449   
 BV BOUND     c5450   
 BV BOUND     c5451   
 BV BOUND     c5452   
 BV BOUND     c5453   
 BV BOUND     c5454   
 BV BOUND     c5455   
 BV BOUND     c5456   
 BV BOUND     c5457   
 BV BOUND     c5458   
 BV BOUND     c5459   
 BV BOUND     c5460   
 BV BOUND     c5461   
 BV BOUND     c5462   
 BV BOUND     c5463   
 BV BOUND     c5464   
 BV BOUND     c5465   
 BV BOUND     c5466   
 BV BOUND     c5467   
 BV BOUND     c5468   
 BV BOUND     c5469   
 BV BOUND     c5470   
 BV BOUND     c5471   
 BV BOUND     c5472   
 BV BOUND     c5473   
 BV BOUND     c5474   
 BV BOUND     c5475   
 BV BOUND     c5476   
 BV BOUND     c5477   
 BV BOUND     c5478   
 BV BOUND     c5479   
 BV BOUND     c5480   
 BV BOUND     c5481   
 BV BOUND     c5482   
 BV BOUND     c5483   
 BV BOUND     c5484   
 BV BOUND     c5485   
 BV BOUND     c5486   
 BV BOUND     c5487   
 BV BOUND     c5488   
 BV BOUND     c5489   
 BV BOUND     c5490   
 BV BOUND     c5491   
 BV BOUND     c5492   
 BV BOUND     c5493   
 BV BOUND     c5494   
 BV BOUND     c5495   
 BV BOUND     c5496   
 BV BOUND     c5497   
 BV BOUND     c5498   
 BV BOUND     c5499   
 BV BOUND     c5500   
 BV BOUND     c5501   
 BV BOUND     c5502   
 BV BOUND     c5503   
 BV BOUND     c5504   
 BV BOUND     c5505   
 BV BOUND     c5506   
 BV BOUND     c5507   
 BV BOUND     c5508   
 BV BOUND     c5509   
 BV BOUND     c5510   
 BV BOUND     c5511   
 BV BOUND     c5512   
 BV BOUND     c5513   
 BV BOUND     c5514   
 BV BOUND     c5515   
 BV BOUND     c5516   
 BV BOUND     c5517   
 BV BOUND     c5518   
 BV BOUND     c5519   
 BV BOUND     c5520   
 BV BOUND     c5521   
 BV BOUND     c5522   
 BV BOUND     c5523   
 BV BOUND     c5524   
 BV BOUND     c5525   
 BV BOUND     c5526   
 BV BOUND     c5527   
 BV BOUND     c5528   
 BV BOUND     c5529   
 BV BOUND     c5530   
 BV BOUND     c5531   
 BV BOUND     c5532   
 BV BOUND     c5533   
 BV BOUND     c5534   
 BV BOUND     c5535   
 BV BOUND     c5536   
 BV BOUND     c5537   
 BV BOUND     c5538   
 BV BOUND     c5539   
 BV BOUND     c5540   
 BV BOUND     c5541   
 BV BOUND     c5542   
 BV BOUND     c5543   
 BV BOUND     c5544   
 BV BOUND     c5545   
 BV BOUND     c5546   
 BV BOUND     c5547   
 BV BOUND     c5548   
 BV BOUND     c5549   
 BV BOUND     c5550   
 BV BOUND     c5551   
 BV BOUND     c5552   
 BV BOUND     c5553   
 BV BOUND     c5554   
 BV BOUND     c5555   
 BV BOUND     c5556   
 BV BOUND     c5557   
 BV BOUND     c5558   
 BV BOUND     c5559   
 BV BOUND     c5560   
 BV BOUND     c5561   
 BV BOUND     c5562   
 BV BOUND     c5563   
 BV BOUND     c5564   
 BV BOUND     c5565   
 BV BOUND     c5566   
 BV BOUND     c5567   
 BV BOUND     c5568   
 BV BOUND     c5569   
 BV BOUND     c5570   
 BV BOUND     c5571   
 BV BOUND     c5572   
 BV BOUND     c5573   
 BV BOUND     c5574   
 BV BOUND     c5575   
 BV BOUND     c5576   
 BV BOUND     c5577   
 BV BOUND     c5578   
 BV BOUND     c5579   
 BV BOUND     c5580   
 BV BOUND     c5581   
 BV BOUND     c5582   
 BV BOUND     c5583   
 BV BOUND     c5584   
 BV BOUND     c5585   
 BV BOUND     c5586   
 BV BOUND     c5587   
 BV BOUND     c5588   
 BV BOUND     c5589   
 BV BOUND     c5590   
 BV BOUND     c5591   
 BV BOUND     c5592   
 BV BOUND     c5593   
 BV BOUND     c5594   
 BV BOUND     c5595   
 BV BOUND     c5596   
 BV BOUND     c5597   
 BV BOUND     c5598   
 BV BOUND     c5599   
 BV BOUND     c5600   
 BV BOUND     c5601   
 BV BOUND     c5602   
 BV BOUND     c5603   
 BV BOUND     c5604   
 BV BOUND     c5605   
 BV BOUND     c5606   
 BV BOUND     c5607   
 BV BOUND     c5608   
 BV BOUND     c5609   
 BV BOUND     c5610   
 BV BOUND     c5611   
 BV BOUND     c5612   
 BV BOUND     c5613   
 BV BOUND     c5614   
 BV BOUND     c5615   
 BV BOUND     c5616   
 BV BOUND     c5617   
 BV BOUND     c5618   
 BV BOUND     c5619   
 BV BOUND     c5620   
 BV BOUND     c5621   
 BV BOUND     c5622   
 BV BOUND     c5623   
 BV BOUND     c5624   
 BV BOUND     c5625   
 BV BOUND     c5626   
 BV BOUND     c5627   
 BV BOUND     c5628   
 BV BOUND     c5629   
 BV BOUND     c5630   
 BV BOUND     c5631   
 BV BOUND     c5632   
 BV BOUND     c5633   
 BV BOUND     c5634   
 BV BOUND     c5635   
 BV BOUND     c5636   
 BV BOUND     c5637   
 BV BOUND     c5638   
 BV BOUND     c5639   
 BV BOUND     c5640   
 BV BOUND     c5641   
 BV BOUND     c5642   
 BV BOUND     c5643   
 BV BOUND     c5644   
 BV BOUND     c5645   
 BV BOUND     c5646   
 BV BOUND     c5647   
 BV BOUND     c5648   
 BV BOUND     c5649   
 BV BOUND     c5650   
 BV BOUND     c5651   
 BV BOUND     c5652   
 BV BOUND     c5653   
 BV BOUND     c5654   
 BV BOUND     c5655   
 BV BOUND     c5656   
 BV BOUND     c5657   
 BV BOUND     c5658   
 BV BOUND     c5659   
 BV BOUND     c5660   
 BV BOUND     c5661   
 BV BOUND     c5662   
 BV BOUND     c5663   
 BV BOUND     c5664   
 BV BOUND     c5665   
 BV BOUND     c5666   
 BV BOUND     c5667   
 BV BOUND     c5668   
 BV BOUND     c5669   
 BV BOUND     c5670   
 BV BOUND     c5671   
 BV BOUND     c5672   
 BV BOUND     c5673   
 BV BOUND     c5674   
 BV BOUND     c5675   
 BV BOUND     c5676   
 BV BOUND     c5677   
 BV BOUND     c5678   
 BV BOUND     c5679   
 BV BOUND     c5680   
 BV BOUND     c5681   
 BV BOUND     c5682   
 BV BOUND     c5683   
 BV BOUND     c5684   
 BV BOUND     c5685   
 BV BOUND     c5686   
 BV BOUND     c5687   
 BV BOUND     c5688   
 BV BOUND     c5689   
 BV BOUND     c5690   
 BV BOUND     c5691   
 BV BOUND     c5692   
 BV BOUND     c5693   
 BV BOUND     c5694   
 BV BOUND     c5695   
 BV BOUND     c5696   
 BV BOUND     c5697   
 BV BOUND     c5698   
 BV BOUND     c5699   
 BV BOUND     c5700   
 BV BOUND     c5701   
 BV BOUND     c5702   
 BV BOUND     c5703   
 BV BOUND     c5704   
 BV BOUND     c5705   
 BV BOUND     c5706   
 BV BOUND     c5707   
 BV BOUND     c5708   
 BV BOUND     c5709   
 BV BOUND     c5710   
 BV BOUND     c5711   
 BV BOUND     c5712   
 BV BOUND     c5713   
 BV BOUND     c5714   
 BV BOUND     c5715   
 BV BOUND     c5716   
 BV BOUND     c5717   
 BV BOUND     c5718   
 BV BOUND     c5719   
 BV BOUND     c5720   
 BV BOUND     c5721   
 BV BOUND     c5722   
 BV BOUND     c5723   
 BV BOUND     c5724   
 BV BOUND     c5725   
 BV BOUND     c5726   
 BV BOUND     c5727   
 BV BOUND     c5728   
 BV BOUND     c5729   
 BV BOUND     c5730   
 BV BOUND     c5731   
 BV BOUND     c5732   
 BV BOUND     c5733   
 BV BOUND     c5734   
 BV BOUND     c5735   
 BV BOUND     c5736   
 BV BOUND     c5737   
 BV BOUND     c5738   
 BV BOUND     c5739   
 BV BOUND     c5740   
 BV BOUND     c5741   
 BV BOUND     c5742   
 BV BOUND     c5743   
 BV BOUND     c5744   
 BV BOUND     c5745   
 BV BOUND     c5746   
 BV BOUND     c5747   
 BV BOUND     c5748   
 BV BOUND     c5749   
 BV BOUND     c5750   
 BV BOUND     c5751   
 BV BOUND     c5752   
 BV BOUND     c5753   
 BV BOUND     c5754   
 BV BOUND     c5755   
 BV BOUND     c5756   
 BV BOUND     c5757   
 BV BOUND     c5758   
 BV BOUND     c5759   
 BV BOUND     c5760   
 BV BOUND     c5761   
 BV BOUND     c5762   
 BV BOUND     c5763   
 BV BOUND     c5764   
 BV BOUND     c5765   
 BV BOUND     c5766   
 BV BOUND     c5767   
 BV BOUND     c5768   
 BV BOUND     c5769   
 BV BOUND     c5770   
 BV BOUND     c5771   
 BV BOUND     c5772   
 BV BOUND     c5773   
 BV BOUND     c5774   
 BV BOUND     c5775   
 BV BOUND     c5776   
 BV BOUND     c5777   
 BV BOUND     c5778   
 BV BOUND     c5779   
 BV BOUND     c5780   
 BV BOUND     c5781   
 BV BOUND     c5782   
 BV BOUND     c5783   
 BV BOUND     c5784   
 BV BOUND     c5785   
 BV BOUND     c5786   
 BV BOUND     c5787   
 BV BOUND     c5788   
 BV BOUND     c5789   
 BV BOUND     c5790   
 BV BOUND     c5791   
 BV BOUND     c5792   
 BV BOUND     c5793   
 BV BOUND     c5794   
 BV BOUND     c5795   
 BV BOUND     c5796   
 BV BOUND     c5797   
 BV BOUND     c5798   
 BV BOUND     c5799   
 BV BOUND     c5800   
 BV BOUND     c5801   
 BV BOUND     c5802   
 BV BOUND     c5803   
 BV BOUND     c5804   
 BV BOUND     c5805   
 BV BOUND     c5806   
 BV BOUND     c5807   
 BV BOUND     c5808   
 BV BOUND     c5809   
 BV BOUND     c5810   
 BV BOUND     c5811   
 BV BOUND     c5812   
 BV BOUND     c5813   
 BV BOUND     c5814   
 BV BOUND     c5815   
 BV BOUND     c5816   
 BV BOUND     c5817   
 BV BOUND     c5818   
 BV BOUND     c5819   
 BV BOUND     c5820   
 BV BOUND     c5821   
 BV BOUND     c5822   
 BV BOUND     c5823   
 BV BOUND     c5824   
 BV BOUND     c5825   
 BV BOUND     c5826   
 BV BOUND     c5827   
 BV BOUND     c5828   
 BV BOUND     c5829   
 BV BOUND     c5830   
 BV BOUND     c5831   
 BV BOUND     c5832   
 BV BOUND     c5833   
 BV BOUND     c5834   
 BV BOUND     c5835   
 BV BOUND     c5836   
 BV BOUND     c5837   
 BV BOUND     c5838   
 BV BOUND     c5839   
 BV BOUND     c5840   
 BV BOUND     c5841   
 BV BOUND     c5842   
 BV BOUND     c5843   
 BV BOUND     c5844   
 BV BOUND     c5845   
 BV BOUND     c5846   
 BV BOUND     c5847   
 BV BOUND     c5848   
 BV BOUND     c5849   
 BV BOUND     c5850   
 BV BOUND     c5851   
 BV BOUND     c5852   
 BV BOUND     c5853   
 BV BOUND     c5854   
 BV BOUND     c5855   
 BV BOUND     c5856   
 BV BOUND     c5857   
 BV BOUND     c5858   
 BV BOUND     c5859   
 BV BOUND     c5860   
 BV BOUND     c5861   
 BV BOUND     c5862   
 BV BOUND     c5863   
 BV BOUND     c5864   
 BV BOUND     c5865   
 BV BOUND     c5866   
 BV BOUND     c5867   
 BV BOUND     c5868   
 BV BOUND     c5869   
 BV BOUND     c5870   
 BV BOUND     c5871   
 BV BOUND     c5872   
 BV BOUND     c5873   
 BV BOUND     c5874   
 BV BOUND     c5875   
 BV BOUND     c5876   
 BV BOUND     c5877   
 BV BOUND     c5878   
 BV BOUND     c5879   
 BV BOUND     c5880   
 BV BOUND     c5881   
 BV BOUND     c5882   
 BV BOUND     c5883   
 BV BOUND     c5884   
 BV BOUND     c5885   
 BV BOUND     c5886   
 BV BOUND     c5887   
 BV BOUND     c5888   
 BV BOUND     c5889   
 BV BOUND     c5890   
 BV BOUND     c5891   
 BV BOUND     c5892   
 BV BOUND     c5893   
 BV BOUND     c5894   
 BV BOUND     c5895   
 BV BOUND     c5896   
 BV BOUND     c5897   
 BV BOUND     c5898   
 BV BOUND     c5899   
 BV BOUND     c5900   
 BV BOUND     c5901   
 BV BOUND     c5902   
 BV BOUND     c5903   
 BV BOUND     c5904   
 BV BOUND     c5905   
 BV BOUND     c5906   
 BV BOUND     c5907   
 BV BOUND     c5908   
 BV BOUND     c5909   
 BV BOUND     c5910   
 BV BOUND     c5911   
 BV BOUND     c5912   
 BV BOUND     c5913   
 BV BOUND     c5914   
 BV BOUND     c5915   
 BV BOUND     c5916   
 BV BOUND     c5917   
 BV BOUND     c5918   
 BV BOUND     c5919   
 BV BOUND     c5920   
 BV BOUND     c5921   
 BV BOUND     c5922   
 BV BOUND     c5923   
 BV BOUND     c5924   
 BV BOUND     c5925   
 BV BOUND     c5926   
 BV BOUND     c5927   
 BV BOUND     c5928   
 BV BOUND     c5929   
 BV BOUND     c5930   
 BV BOUND     c5931   
 BV BOUND     c5932   
 BV BOUND     c5933   
 BV BOUND     c5934   
 BV BOUND     c5935   
 BV BOUND     c5936   
 BV BOUND     c5937   
 BV BOUND     c5938   
 BV BOUND     c5939   
 BV BOUND     c5940   
 BV BOUND     c5941   
 BV BOUND     c5942   
 BV BOUND     c5943   
 BV BOUND     c5944   
 BV BOUND     c5945   
 BV BOUND     c5946   
 BV BOUND     c5947   
 BV BOUND     c5948   
 BV BOUND     c5949   
 BV BOUND     c5950   
 BV BOUND     c5951   
 BV BOUND     c5952   
 BV BOUND     c5953   
 BV BOUND     c5954   
 BV BOUND     c5955   
 BV BOUND     c5956   
 BV BOUND     c5957   
 BV BOUND     c5958   
 BV BOUND     c5959   
 BV BOUND     c5960   
 BV BOUND     c5961   
 BV BOUND     c5962   
 BV BOUND     c5963   
 BV BOUND     c5964   
 BV BOUND     c5965   
 BV BOUND     c5966   
 BV BOUND     c5967   
 BV BOUND     c5968   
 BV BOUND     c5969   
 BV BOUND     c5970   
 BV BOUND     c5971   
 BV BOUND     c5972   
 BV BOUND     c5973   
 BV BOUND     c5974   
 BV BOUND     c5975   
 BV BOUND     c5976   
 BV BOUND     c5977   
 BV BOUND     c5978   
 BV BOUND     c5979   
 BV BOUND     c5980   
 BV BOUND     c5981   
 BV BOUND     c5982   
 BV BOUND     c5983   
 BV BOUND     c5984   
 BV BOUND     c5985   
 BV BOUND     c5986   
 BV BOUND     c5987   
 BV BOUND     c5988   
 BV BOUND     c5989   
 BV BOUND     c5990   
 BV BOUND     c5991   
 BV BOUND     c5992   
 BV BOUND     c5993   
 BV BOUND     c5994   
 BV BOUND     c5995   
 BV BOUND     c5996   
 BV BOUND     c5997   
 BV BOUND     c5998   
 BV BOUND     c5999   
 BV BOUND     c6000   
 BV BOUND     c6001   
 BV BOUND     c6002   
 BV BOUND     c6003   
 BV BOUND     c6004   
 BV BOUND     c6005   
 BV BOUND     c6006   
 BV BOUND     c6007   
 BV BOUND     c6008   
 BV BOUND     c6009   
 BV BOUND     c6010   
 BV BOUND     c6011   
 BV BOUND     c6012   
 BV BOUND     c6013   
 BV BOUND     c6014   
 BV BOUND     c6015   
 BV BOUND     c6016   
 BV BOUND     c6017   
 BV BOUND     c6018   
 BV BOUND     c6019   
 BV BOUND     c6020   
 BV BOUND     c6021   
 BV BOUND     c6022   
 BV BOUND     c6023   
 BV BOUND     c6024   
 BV BOUND     c6025   
 BV BOUND     c6026   
 BV BOUND     c6027   
 BV BOUND     c6028   
 BV BOUND     c6029   
 BV BOUND     c6030   
 BV BOUND     c6031   
 BV BOUND     c6032   
 BV BOUND     c6033   
 BV BOUND     c6034   
 BV BOUND     c6035   
 BV BOUND     c6036   
 BV BOUND     c6037   
 BV BOUND     c6038   
 BV BOUND     c6039   
 BV BOUND     c6040   
 BV BOUND     c6041   
 BV BOUND     c6042   
 BV BOUND     c6043   
 BV BOUND     c6044   
 BV BOUND     c6045   
 BV BOUND     c6046   
 BV BOUND     c6047   
 BV BOUND     c6048   
 BV BOUND     c6049   
 BV BOUND     c6050   
 BV BOUND     c6051   
 BV BOUND     c6052   
 BV BOUND     c6053   
 BV BOUND     c6054   
 BV BOUND     c6055   
 BV BOUND     c6056   
 BV BOUND     c6057   
 BV BOUND     c6058   
 BV BOUND     c6059   
 BV BOUND     c6060   
 BV BOUND     c6061   
 BV BOUND     c6062   
 BV BOUND     c6063   
 BV BOUND     c6064   
 BV BOUND     c6065   
 BV BOUND     c6066   
 BV BOUND     c6067   
 BV BOUND     c6068   
 BV BOUND     c6069   
 BV BOUND     c6070   
 BV BOUND     c6071   
 BV BOUND     c6072   
 BV BOUND     c6073   
 BV BOUND     c6074   
 BV BOUND     c6075   
 BV BOUND     c6076   
 BV BOUND     c6077   
 BV BOUND     c6078   
 BV BOUND     c6079   
 BV BOUND     c6080   
 BV BOUND     c6081   
 BV BOUND     c6082   
 BV BOUND     c6083   
 BV BOUND     c6084   
 BV BOUND     c6085   
 BV BOUND     c6086   
 BV BOUND     c6087   
 BV BOUND     c6088   
 BV BOUND     c6089   
 BV BOUND     c6090   
 BV BOUND     c6091   
 BV BOUND     c6092   
 BV BOUND     c6093   
 BV BOUND     c6094   
 BV BOUND     c6095   
 BV BOUND     c6096   
 BV BOUND     c6097   
 BV BOUND     c6098   
 BV BOUND     c6099   
 BV BOUND     c6100   
 BV BOUND     c6101   
 BV BOUND     c6102   
 BV BOUND     c6103   
 BV BOUND     c6104   
 BV BOUND     c6105   
 BV BOUND     c6106   
 BV BOUND     c6107   
 BV BOUND     c6108   
 BV BOUND     c6109   
 BV BOUND     c6110   
 BV BOUND     c6111   
 BV BOUND     c6112   
 BV BOUND     c6113   
 BV BOUND     c6114   
 BV BOUND     c6115   
 BV BOUND     c6116   
 BV BOUND     c6117   
 BV BOUND     c6118   
 BV BOUND     c6119   
 BV BOUND     c6120   
 BV BOUND     c6121   
 BV BOUND     c6122   
 BV BOUND     c6123   
 BV BOUND     c6124   
 BV BOUND     c6125   
 BV BOUND     c6126   
 BV BOUND     c6127   
 BV BOUND     c6128   
 BV BOUND     c6129   
 BV BOUND     c6130   
 BV BOUND     c6131   
 BV BOUND     c6132   
 BV BOUND     c6133   
 BV BOUND     c6134   
 BV BOUND     c6135   
 BV BOUND     c6136   
 BV BOUND     c6137   
 BV BOUND     c6138   
 BV BOUND     c6139   
 BV BOUND     c6140   
 BV BOUND     c6141   
 BV BOUND     c6142   
 BV BOUND     c6143   
 BV BOUND     c6144   
 BV BOUND     c6145   
 BV BOUND     c6146   
 BV BOUND     c6147   
 BV BOUND     c6148   
 BV BOUND     c6149   
 BV BOUND     c6150   
 BV BOUND     c6151   
 BV BOUND     c6152   
 BV BOUND     c6153   
 BV BOUND     c6154   
 BV BOUND     c6155   
 BV BOUND     c6156   
 BV BOUND     c6157   
 BV BOUND     c6158   
 BV BOUND     c6159   
 BV BOUND     c6160   
 BV BOUND     c6161   
 BV BOUND     c6162   
 BV BOUND     c6163   
 BV BOUND     c6164   
 BV BOUND     c6165   
 BV BOUND     c6166   
 BV BOUND     c6167   
 BV BOUND     c6168   
 BV BOUND     c6169   
 BV BOUND     c6170   
 BV BOUND     c6171   
 BV BOUND     c6172   
 BV BOUND     c6173   
 BV BOUND     c6174   
 BV BOUND     c6175   
 BV BOUND     c6176   
 BV BOUND     c6177   
 BV BOUND     c6178   
 BV BOUND     c6179   
 BV BOUND     c6180   
 BV BOUND     c6181   
 BV BOUND     c6182   
 BV BOUND     c6183   
 BV BOUND     c6184   
 BV BOUND     c6185   
 BV BOUND     c6186   
 BV BOUND     c6187   
 BV BOUND     c6188   
 BV BOUND     c6189   
 BV BOUND     c6190   
 BV BOUND     c6191   
 BV BOUND     c6192   
 BV BOUND     c6193   
 BV BOUND     c6194   
 BV BOUND     c6195   
 BV BOUND     c6196   
 BV BOUND     c6197   
 BV BOUND     c6198   
 BV BOUND     c6199   
 BV BOUND     c6200   
 BV BOUND     c6201   
 BV BOUND     c6202   
 BV BOUND     c6203   
 BV BOUND     c6204   
 BV BOUND     c6205   
 BV BOUND     c6206   
 BV BOUND     c6207   
 BV BOUND     c6208   
 BV BOUND     c6209   
 BV BOUND     c6210   
 BV BOUND     c6211   
 BV BOUND     c6212   
 BV BOUND     c6213   
 BV BOUND     c6214   
 BV BOUND     c6215   
 BV BOUND     c6216   
 BV BOUND     c6217   
 BV BOUND     c6218   
 BV BOUND     c6219   
 BV BOUND     c6220   
 BV BOUND     c6221   
 BV BOUND     c6222   
 BV BOUND     c6223   
 BV BOUND     c6224   
 BV BOUND     c6225   
 BV BOUND     c6226   
 BV BOUND     c6227   
 BV BOUND     c6228   
 BV BOUND     c6229   
 BV BOUND     c6230   
 BV BOUND     c6231   
 BV BOUND     c6232   
 BV BOUND     c6233   
 BV BOUND     c6234   
 BV BOUND     c6235   
 BV BOUND     c6236   
 BV BOUND     c6237   
 BV BOUND     c6238   
 BV BOUND     c6239   
 BV BOUND     c6240   
 BV BOUND     c6241   
 BV BOUND     c6242   
 BV BOUND     c6243   
 BV BOUND     c6244   
 BV BOUND     c6245   
 BV BOUND     c6246   
 BV BOUND     c6247   
 BV BOUND     c6248   
 BV BOUND     c6249   
 BV BOUND     c6250   
 BV BOUND     c6251   
 BV BOUND     c6252   
 BV BOUND     c6253   
 BV BOUND     c6254   
 BV BOUND     c6255   
 BV BOUND     c6256   
 BV BOUND     c6257   
 BV BOUND     c6258   
 BV BOUND     c6259   
 BV BOUND     c6260   
 BV BOUND     c6261   
 BV BOUND     c6262   
 BV BOUND     c6263   
 BV BOUND     c6264   
 BV BOUND     c6265   
 BV BOUND     c6266   
 BV BOUND     c6267   
 BV BOUND     c6268   
 BV BOUND     c6269   
 BV BOUND     c6270   
 BV BOUND     c6271   
 BV BOUND     c6272   
 BV BOUND     c6273   
 BV BOUND     c6274   
 BV BOUND     c6275   
 BV BOUND     c6276   
 BV BOUND     c6277   
 BV BOUND     c6278   
 BV BOUND     c6279   
 BV BOUND     c6280   
 BV BOUND     c6281   
 BV BOUND     c6282   
 BV BOUND     c6283   
 BV BOUND     c6284   
 BV BOUND     c6285   
 BV BOUND     c6286   
 BV BOUND     c6287   
 BV BOUND     c6288   
 BV BOUND     c6289   
 BV BOUND     c6290   
 BV BOUND     c6291   
 BV BOUND     c6292   
 BV BOUND     c6293   
 BV BOUND     c6294   
 BV BOUND     c6295   
 BV BOUND     c6296   
 BV BOUND     c6297   
 BV BOUND     c6298   
 BV BOUND     c6299   
 BV BOUND     c6300   
 BV BOUND     c6301   
 BV BOUND     c6302   
 BV BOUND     c6303   
 BV BOUND     c6304   
 BV BOUND     c6305   
 BV BOUND     c6306   
 BV BOUND     c6307   
 BV BOUND     c6308   
 BV BOUND     c6309   
 BV BOUND     c6310   
 BV BOUND     c6311   
 BV BOUND     c6312   
 BV BOUND     c6313   
 BV BOUND     c6314   
 BV BOUND     c6315   
 BV BOUND     c6316   
 BV BOUND     c6317   
 BV BOUND     c6318   
 BV BOUND     c6319   
 BV BOUND     c6320   
 BV BOUND     c6321   
 BV BOUND     c6322   
 BV BOUND     c6323   
 BV BOUND     c6324   
 BV BOUND     c6325   
 BV BOUND     c6326   
 BV BOUND     c6327   
 BV BOUND     c6328   
 BV BOUND     c6329   
 BV BOUND     c6330   
 BV BOUND     c6331   
 BV BOUND     c6332   
 BV BOUND     c6333   
 BV BOUND     c6334   
 BV BOUND     c6335   
 BV BOUND     c6336   
 BV BOUND     c6337   
 BV BOUND     c6338   
 BV BOUND     c6339   
 BV BOUND     c6340   
 BV BOUND     c6341   
 BV BOUND     c6342   
 BV BOUND     c6343   
 BV BOUND     c6344   
 BV BOUND     c6345   
 BV BOUND     c6346   
 BV BOUND     c6347   
 BV BOUND     c6348   
 BV BOUND     c6349   
 BV BOUND     c6350   
 BV BOUND     c6351   
 BV BOUND     c6352   
 BV BOUND     c6353   
 BV BOUND     c6354   
 BV BOUND     c6355   
 BV BOUND     c6356   
 BV BOUND     c6357   
 BV BOUND     c6358   
 BV BOUND     c6359   
 BV BOUND     c6360   
 BV BOUND     c6361   
 BV BOUND     c6362   
 BV BOUND     c6363   
 BV BOUND     c6364   
 BV BOUND     c6365   
 BV BOUND     c6366   
 BV BOUND     c6367   
 BV BOUND     c6368   
 BV BOUND     c6369   
 BV BOUND     c6370   
 BV BOUND     c6371   
 BV BOUND     c6372   
 BV BOUND     c6373   
 BV BOUND     c6374   
 BV BOUND     c6375   
 BV BOUND     c6376   
 BV BOUND     c6377   
 BV BOUND     c6378   
 BV BOUND     c6379   
 BV BOUND     c6380   
 BV BOUND     c6381   
 BV BOUND     c6382   
 BV BOUND     c6383   
 BV BOUND     c6384   
 BV BOUND     c6385   
 BV BOUND     c6386   
 BV BOUND     c6387   
 BV BOUND     c6388   
 BV BOUND     c6389   
 BV BOUND     c6390   
 BV BOUND     c6391   
 BV BOUND     c6392   
 BV BOUND     c6393   
 BV BOUND     c6394   
 BV BOUND     c6395   
 BV BOUND     c6396   
 BV BOUND     c6397   
 BV BOUND     c6398   
 BV BOUND     c6399   
 BV BOUND     c6400   
 BV BOUND     c6401   
 BV BOUND     c6402   
 BV BOUND     c6403   
 BV BOUND     c6404   
 BV BOUND     c6405   
 BV BOUND     c6406   
 BV BOUND     c6407   
 BV BOUND     c6408   
 BV BOUND     c6409   
 BV BOUND     c6410   
 BV BOUND     c6411   
 BV BOUND     c6412   
 BV BOUND     c6413   
 BV BOUND     c6414   
 BV BOUND     c6415   
 BV BOUND     c6416   
 BV BOUND     c6417   
 BV BOUND     c6418   
 BV BOUND     c6419   
 BV BOUND     c6420   
 BV BOUND     c6421   
 BV BOUND     c6422   
 BV BOUND     c6423   
 BV BOUND     c6424   
 BV BOUND     c6425   
 BV BOUND     c6426   
 BV BOUND     c6427   
 BV BOUND     c6428   
 BV BOUND     c6429   
 BV BOUND     c6430   
 BV BOUND     c6431   
 BV BOUND     c6432   
 BV BOUND     c6433   
 BV BOUND     c6434   
 BV BOUND     c6435   
 BV BOUND     c6436   
 BV BOUND     c6437   
 BV BOUND     c6438   
 BV BOUND     c6439   
 BV BOUND     c6440   
 BV BOUND     c6441   
 BV BOUND     c6442   
 BV BOUND     c6443   
 BV BOUND     c6444   
 BV BOUND     c6445   
 BV BOUND     c6446   
 BV BOUND     c6447   
 BV BOUND     c6448   
 BV BOUND     c6449   
 BV BOUND     c6450   
 BV BOUND     c6451   
 BV BOUND     c6452   
 BV BOUND     c6453   
 BV BOUND     c6454   
 BV BOUND     c6455   
 BV BOUND     c6456   
 BV BOUND     c6457   
 BV BOUND     c6458   
 BV BOUND     c6459   
 BV BOUND     c6460   
 BV BOUND     c6461   
 BV BOUND     c6462   
 BV BOUND     c6463   
 BV BOUND     c6464   
 BV BOUND     c6465   
 BV BOUND     c6466   
 BV BOUND     c6467   
 BV BOUND     c6468   
 BV BOUND     c6469   
 BV BOUND     c6470   
 BV BOUND     c6471   
 BV BOUND     c6472   
 BV BOUND     c6473   
 BV BOUND     c6474   
 BV BOUND     c6475   
 BV BOUND     c6476   
 BV BOUND     c6477   
 BV BOUND     c6478   
 BV BOUND     c6479   
 BV BOUND     c6480   
 BV BOUND     c6481   
 BV BOUND     c6482   
 BV BOUND     c6483   
 BV BOUND     c6484   
 BV BOUND     c6485   
 BV BOUND     c6486   
 BV BOUND     c6487   
 BV BOUND     c6488   
 BV BOUND     c6489   
 BV BOUND     c6490   
 BV BOUND     c6491   
 BV BOUND     c6492   
 BV BOUND     c6493   
 BV BOUND     c6494   
 BV BOUND     c6495   
 BV BOUND     c6496   
 BV BOUND     c6497   
 BV BOUND     c6498   
 BV BOUND     c6499   
 BV BOUND     c6500   
 BV BOUND     c6501   
 BV BOUND     c6502   
 BV BOUND     c6503   
 BV BOUND     c6504   
 BV BOUND     c6505   
 BV BOUND     c6506   
 BV BOUND     c6507   
 BV BOUND     c6508   
 BV BOUND     c6509   
 BV BOUND     c6510   
 BV BOUND     c6511   
 BV BOUND     c6512   
 BV BOUND     c6513   
 BV BOUND     c6514   
 BV BOUND     c6515   
 BV BOUND     c6516   
 BV BOUND     c6517   
 BV BOUND     c6518   
 BV BOUND     c6519   
 BV BOUND     c6520   
 BV BOUND     c6521   
 BV BOUND     c6522   
 BV BOUND     c6523   
 BV BOUND     c6524   
 BV BOUND     c6525   
 BV BOUND     c6526   
 BV BOUND     c6527   
 BV BOUND     c6528   
 BV BOUND     c6529   
 BV BOUND     c6530   
 BV BOUND     c6531   
 BV BOUND     c6532   
 BV BOUND     c6533   
 BV BOUND     c6534   
 BV BOUND     c6535   
 BV BOUND     c6536   
 BV BOUND     c6537   
 BV BOUND     c6538   
 BV BOUND     c6539   
 BV BOUND     c6540   
 BV BOUND     c6541   
 BV BOUND     c6542   
 BV BOUND     c6543   
 BV BOUND     c6544   
 BV BOUND     c6545   
 BV BOUND     c6546   
 BV BOUND     c6547   
 BV BOUND     c6548   
 BV BOUND     c6549   
 BV BOUND     c6550   
 BV BOUND     c6551   
 BV BOUND     c6552   
 BV BOUND     c6553   
 BV BOUND     c6554   
 BV BOUND     c6555   
 BV BOUND     c6556   
 BV BOUND     c6557   
 BV BOUND     c6558   
 BV BOUND     c6559   
 BV BOUND     c6560   
 BV BOUND     c6561   
 BV BOUND     c6562   
 BV BOUND     c6563   
 BV BOUND     c6564   
 BV BOUND     c6565   
 BV BOUND     c6566   
 BV BOUND     c6567   
 BV BOUND     c6568   
 BV BOUND     c6569   
 BV BOUND     c6570   
 BV BOUND     c6571   
 BV BOUND     c6572   
 BV BOUND     c6573   
 BV BOUND     c6574   
 BV BOUND     c6575   
 BV BOUND     c6576   
 BV BOUND     c6577   
 BV BOUND     c6578   
 BV BOUND     c6579   
 BV BOUND     c6580   
 BV BOUND     c6581   
 BV BOUND     c6582   
 BV BOUND     c6583   
 BV BOUND     c6584   
 BV BOUND     c6585   
 BV BOUND     c6586   
 BV BOUND     c6587   
 BV BOUND     c6588   
 BV BOUND     c6589   
 BV BOUND     c6590   
 BV BOUND     c6591   
 BV BOUND     c6592   
 BV BOUND     c6593   
 BV BOUND     c6594   
 BV BOUND     c6595   
 BV BOUND     c6596   
 BV BOUND     c6597   
 BV BOUND     c6598   
 BV BOUND     c6599   
 BV BOUND     c6600   
 BV BOUND     c6601   
 BV BOUND     c6602   
 BV BOUND     c6603   
 BV BOUND     c6604   
 BV BOUND     c6605   
 BV BOUND     c6606   
 BV BOUND     c6607   
 BV BOUND     c6608   
 BV BOUND     c6609   
 BV BOUND     c6610   
 BV BOUND     c6611   
 BV BOUND     c6612   
 BV BOUND     c6613   
 BV BOUND     c6614   
 BV BOUND     c6615   
 BV BOUND     c6616   
 BV BOUND     c6617   
 BV BOUND     c6618   
 BV BOUND     c6619   
 BV BOUND     c6620   
 BV BOUND     c6621   
 BV BOUND     c6622   
 BV BOUND     c6623   
 BV BOUND     c6624   
 BV BOUND     c6625   
 BV BOUND     c6626   
 BV BOUND     c6627   
 BV BOUND     c6628   
 BV BOUND     c6629   
 BV BOUND     c6630   
 BV BOUND     c6631   
 BV BOUND     c6632   
 BV BOUND     c6633   
 BV BOUND     c6634   
 BV BOUND     c6635   
 BV BOUND     c6636   
 BV BOUND     c6637   
 BV BOUND     c6638   
 BV BOUND     c6639   
 BV BOUND     c6640   
 BV BOUND     c6641   
 BV BOUND     c6642   
 BV BOUND     c6643   
 BV BOUND     c6644   
 BV BOUND     c6645   
 BV BOUND     c6646   
 BV BOUND     c6647   
 BV BOUND     c6648   
 BV BOUND     c6649   
 BV BOUND     c6650   
 BV BOUND     c6651   
 BV BOUND     c6652   
 BV BOUND     c6653   
 BV BOUND     c6654   
 BV BOUND     c6655   
 BV BOUND     c6656   
 BV BOUND     c6657   
 BV BOUND     c6658   
 BV BOUND     c6659   
 BV BOUND     c6660   
 BV BOUND     c6661   
 BV BOUND     c6662   
 BV BOUND     c6663   
 BV BOUND     c6664   
 BV BOUND     c6665   
 BV BOUND     c6666   
 BV BOUND     c6667   
 BV BOUND     c6668   
 BV BOUND     c6669   
 BV BOUND     c6670   
 BV BOUND     c6671   
 BV BOUND     c6672   
 BV BOUND     c6673   
 BV BOUND     c6674   
 BV BOUND     c6675   
 BV BOUND     c6676   
 BV BOUND     c6677   
 BV BOUND     c6678   
 BV BOUND     c6679   
 BV BOUND     c6680   
 BV BOUND     c6681   
 BV BOUND     c6682   
 BV BOUND     c6683   
 BV BOUND     c6684   
 BV BOUND     c6685   
 BV BOUND     c6686   
 BV BOUND     c6687   
 BV BOUND     c6688   
 BV BOUND     c6689   
 BV BOUND     c6690   
 BV BOUND     c6691   
 BV BOUND     c6692   
 BV BOUND     c6693   
 BV BOUND     c6694   
 BV BOUND     c6695   
 BV BOUND     c6696   
 BV BOUND     c6697   
 BV BOUND     c6698   
 BV BOUND     c6699   
 BV BOUND     c6700   
 BV BOUND     c6701   
 BV BOUND     c6702   
 BV BOUND     c6703   
 BV BOUND     c6704   
 BV BOUND     c6705   
 BV BOUND     c6706   
 BV BOUND     c6707   
 BV BOUND     c6708   
 BV BOUND     c6709   
 BV BOUND     c6710   
 BV BOUND     c6711   
 BV BOUND     c6712   
 BV BOUND     c6713   
 BV BOUND     c6714   
 BV BOUND     c6715   
 BV BOUND     c6716   
 BV BOUND     c6717   
 BV BOUND     c6718   
 BV BOUND     c6719   
 BV BOUND     c6720   
 BV BOUND     c6721   
 BV BOUND     c6722   
 BV BOUND     c6723   
 BV BOUND     c6724   
 BV BOUND     c6725   
 BV BOUND     c6726   
 BV BOUND     c6727   
 BV BOUND     c6728   
 BV BOUND     c6729   
 BV BOUND     c6730   
 BV BOUND     c6731   
 BV BOUND     c6732   
 BV BOUND     c6733   
 BV BOUND     c6734   
 BV BOUND     c6735   
 BV BOUND     c6736   
 BV BOUND     c6737   
 BV BOUND     c6738   
 BV BOUND     c6739   
 BV BOUND     c6740   
 BV BOUND     c6741   
 BV BOUND     c6742   
 BV BOUND     c6743   
 BV BOUND     c6744   
 BV BOUND     c6745   
 BV BOUND     c6746   
 BV BOUND     c6747   
 BV BOUND     c6748   
 BV BOUND     c6749   
 BV BOUND     c6750   
 BV BOUND     c6751   
 BV BOUND     c6752   
 BV BOUND     c6753   
 BV BOUND     c6754   
 BV BOUND     c6755   
 BV BOUND     c6756   
 BV BOUND     c6757   
 BV BOUND     c6758   
 BV BOUND     c6759   
 BV BOUND     c6760   
 BV BOUND     c6761   
 BV BOUND     c6762   
 BV BOUND     c6763   
 BV BOUND     c6764   
 BV BOUND     c6765   
 BV BOUND     c6766   
 BV BOUND     c6767   
 BV BOUND     c6768   
 BV BOUND     c6769   
 BV BOUND     c6770   
 BV BOUND     c6771   
 BV BOUND     c6772   
 BV BOUND     c6773   
 BV BOUND     c6774   
 BV BOUND     c6775   
 BV BOUND     c6776   
 BV BOUND     c6777   
 BV BOUND     c6778   
 BV BOUND     c6779   
 BV BOUND     c6780   
 BV BOUND     c6781   
 BV BOUND     c6782   
 BV BOUND     c6783   
 BV BOUND     c6784   
 BV BOUND     c6785   
 BV BOUND     c6786   
 BV BOUND     c6787   
 BV BOUND     c6788   
 BV BOUND     c6789   
 BV BOUND     c6790   
 BV BOUND     c6791   
 BV BOUND     c6792   
 BV BOUND     c6793   
 BV BOUND     c6794   
 BV BOUND     c6795   
 BV BOUND     c6796   
 BV BOUND     c6797   
 BV BOUND     c6798   
 BV BOUND     c6799   
 BV BOUND     c6800   
 BV BOUND     c6801   
 BV BOUND     c6802   
 BV BOUND     c6803   
 BV BOUND     c6804   
 BV BOUND     c6805   
 BV BOUND     c6806   
 BV BOUND     c6807   
 BV BOUND     c6808   
 BV BOUND     c6809   
 BV BOUND     c6810   
 BV BOUND     c6811   
 BV BOUND     c6812   
 BV BOUND     c6813   
 BV BOUND     c6814   
 BV BOUND     c6815   
 BV BOUND     c6816   
 BV BOUND     c6817   
 BV BOUND     c6818   
 BV BOUND     c6819   
 BV BOUND     c6820   
 BV BOUND     c6821   
 BV BOUND     c6822   
 BV BOUND     c6823   
 BV BOUND     c6824   
 BV BOUND     c6825   
 BV BOUND     c6826   
 BV BOUND     c6827   
 BV BOUND     c6828   
 BV BOUND     c6829   
 BV BOUND     c6830   
 BV BOUND     c6831   
 BV BOUND     c6832   
 BV BOUND     c6833   
 BV BOUND     c6834   
 BV BOUND     c6835   
 BV BOUND     c6836   
 BV BOUND     c6837   
 BV BOUND     c6838   
 BV BOUND     c6839   
 BV BOUND     c6840   
 BV BOUND     c6841   
 BV BOUND     c6842   
 BV BOUND     c6843   
 BV BOUND     c6844   
 BV BOUND     c6845   
 BV BOUND     c6846   
 BV BOUND     c6847   
 BV BOUND     c6848   
 BV BOUND     c6849   
 BV BOUND     c6850   
 BV BOUND     c6851   
 BV BOUND     c6852   
 BV BOUND     c6853   
 BV BOUND     c6854   
 BV BOUND     c6855   
 BV BOUND     c6856   
 BV BOUND     c6857   
 BV BOUND     c6858   
 BV BOUND     c6859   
 BV BOUND     c6860   
 BV BOUND     c6861   
 BV BOUND     c6862   
 BV BOUND     c6863   
 BV BOUND     c6864   
 BV BOUND     c6865   
 BV BOUND     c6866   
 BV BOUND     c6867   
 BV BOUND     c6868   
 BV BOUND     c6869   
 BV BOUND     c6870   
 BV BOUND     c6871   
 BV BOUND     c6872   
 BV BOUND     c6873   
 BV BOUND     c6874   
 BV BOUND     c6875   
 BV BOUND     c6876   
 BV BOUND     c6877   
 BV BOUND     c6878   
 BV BOUND     c6879   
 BV BOUND     c6880   
 BV BOUND     c6881   
 BV BOUND     c6882   
 BV BOUND     c6883   
 BV BOUND     c6884   
 BV BOUND     c6885   
 BV BOUND     c6886   
 BV BOUND     c6887   
 BV BOUND     c6888   
 BV BOUND     c6889   
 BV BOUND     c6890   
 BV BOUND     c6891   
 BV BOUND     c6892   
 BV BOUND     c6893   
 BV BOUND     c6894   
 BV BOUND     c6895   
 BV BOUND     c6896   
 BV BOUND     c6897   
 BV BOUND     c6898   
 BV BOUND     c6899   
 BV BOUND     c6900   
 BV BOUND     c6901   
 BV BOUND     c6902   
 BV BOUND     c6903   
 BV BOUND     c6904   
 BV BOUND     c6905   
 BV BOUND     c6906   
 BV BOUND     c6907   
 BV BOUND     c6908   
 BV BOUND     c6909   
 BV BOUND     c6910   
 BV BOUND     c6911   
 BV BOUND     c6912   
 BV BOUND     c6913   
 BV BOUND     c6914   
 BV BOUND     c6915   
 BV BOUND     c6916   
 BV BOUND     c6917   
 BV BOUND     c6918   
 BV BOUND     c6919   
 BV BOUND     c6920   
 BV BOUND     c6921   
 BV BOUND     c6922   
 BV BOUND     c6923   
 BV BOUND     c6924   
 BV BOUND     c6925   
 BV BOUND     c6926   
 BV BOUND     c6927   
 BV BOUND     c6928   
 BV BOUND     c6929   
 BV BOUND     c6930   
 BV BOUND     c6931   
 BV BOUND     c6932   
 BV BOUND     c6933   
 BV BOUND     c6934   
 BV BOUND     c6935   
 BV BOUND     c6936   
 BV BOUND     c6937   
 BV BOUND     c6938   
 BV BOUND     c6939   
 BV BOUND     c6940   
 BV BOUND     c6941   
 BV BOUND     c6942   
 BV BOUND     c6943   
 BV BOUND     c6944   
 BV BOUND     c6945   
 BV BOUND     c6946   
 BV BOUND     c6947   
 BV BOUND     c6948   
 BV BOUND     c6949   
 BV BOUND     c6950   
 BV BOUND     c6951   
 BV BOUND     c6952   
 BV BOUND     c6953   
 BV BOUND     c6954   
 BV BOUND     c6955   
 BV BOUND     c6956   
 BV BOUND     c6957   
 BV BOUND     c6958   
 BV BOUND     c6959   
 BV BOUND     c6960   
 BV BOUND     c6961   
 BV BOUND     c6962   
 BV BOUND     c6963   
 BV BOUND     c6964   
 BV BOUND     c6965   
 BV BOUND     c6966   
 BV BOUND     c6967   
 BV BOUND     c6968   
 BV BOUND     c6969   
 BV BOUND     c6970   
 BV BOUND     c6971   
 BV BOUND     c6972   
 BV BOUND     c6973   
 BV BOUND     c6974   
 BV BOUND     c6975   
 BV BOUND     c6976   
 BV BOUND     c6977   
 BV BOUND     c6978   
 BV BOUND     c6979   
 BV BOUND     c6980   
 BV BOUND     c6981   
 BV BOUND     c6982   
 BV BOUND     c6983   
 BV BOUND     c6984   
 BV BOUND     c6985   
 BV BOUND     c6986   
 BV BOUND     c6987   
 BV BOUND     c6988   
 BV BOUND     c6989   
 BV BOUND     c6990   
 BV BOUND     c6991   
 BV BOUND     c6992   
 BV BOUND     c6993   
 BV BOUND     c6994   
 BV BOUND     c6995   
 BV BOUND     c6996   
 BV BOUND     c6997   
 BV BOUND     c6998   
 BV BOUND     c6999   
 BV BOUND     c7000   
 BV BOUND     c7001   
 BV BOUND     c7002   
 BV BOUND     c7003   
 BV BOUND     c7004   
 BV BOUND     c7005   
 BV BOUND     c7006   
 BV BOUND     c7007   
 BV BOUND     c7008   
 BV BOUND     c7009   
 BV BOUND     c7010   
 BV BOUND     c7011   
 BV BOUND     c7012   
 BV BOUND     c7013   
 BV BOUND     c7014   
 BV BOUND     c7015   
 BV BOUND     c7016   
 BV BOUND     c7017   
 BV BOUND     c7018   
 BV BOUND     c7019   
 BV BOUND     c7020   
 BV BOUND     c7021   
 BV BOUND     c7022   
 BV BOUND     c7023   
 BV BOUND     c7024   
 BV BOUND     c7025   
 BV BOUND     c7026   
 BV BOUND     c7027   
 BV BOUND     c7028   
 BV BOUND     c7029   
 BV BOUND     c7030   
 BV BOUND     c7031   
 BV BOUND     c7032   
 BV BOUND     c7033   
 BV BOUND     c7034   
 BV BOUND     c7035   
 BV BOUND     c7036   
 BV BOUND     c7037   
 BV BOUND     c7038   
 BV BOUND     c7039   
 BV BOUND     c7040   
 BV BOUND     c7041   
 BV BOUND     c7042   
 BV BOUND     c7043   
 BV BOUND     c7044   
 BV BOUND     c7045   
 BV BOUND     c7046   
 BV BOUND     c7047   
 BV BOUND     c7048   
 BV BOUND     c7049   
 BV BOUND     c7050   
 BV BOUND     c7051   
 BV BOUND     c7052   
 BV BOUND     c7053   
 BV BOUND     c7054   
 BV BOUND     c7055   
 BV BOUND     c7056   
 BV BOUND     c7057   
 BV BOUND     c7058   
 BV BOUND     c7059   
 BV BOUND     c7060   
 BV BOUND     c7061   
 BV BOUND     c7062   
 BV BOUND     c7063   
 BV BOUND     c7064   
 BV BOUND     c7065   
 BV BOUND     c7066   
 BV BOUND     c7067   
 BV BOUND     c7068   
 BV BOUND     c7069   
 BV BOUND     c7070   
 BV BOUND     c7071   
 BV BOUND     c7072   
 BV BOUND     c7073   
 BV BOUND     c7074   
 BV BOUND     c7075   
 BV BOUND     c7076   
 BV BOUND     c7077   
 BV BOUND     c7078   
 BV BOUND     c7079   
 BV BOUND     c7080   
 BV BOUND     c7081   
 BV BOUND     c7082   
 BV BOUND     c7083   
 BV BOUND     c7084   
 BV BOUND     c7085   
 BV BOUND     c7086   
 BV BOUND     c7087   
 BV BOUND     c7088   
 BV BOUND     c7089   
 BV BOUND     c7090   
 BV BOUND     c7091   
 BV BOUND     c7092   
 BV BOUND     c7093   
 BV BOUND     c7094   
 BV BOUND     c7095   
 BV BOUND     c7096   
 BV BOUND     c7097   
 BV BOUND     c7098   
 BV BOUND     c7099   
 BV BOUND     c7100   
 BV BOUND     c7101   
 BV BOUND     c7102   
 BV BOUND     c7103   
 BV BOUND     c7104   
 BV BOUND     c7105   
 BV BOUND     c7106   
 BV BOUND     c7107   
 BV BOUND     c7108   
 BV BOUND     c7109   
 BV BOUND     c7110   
 BV BOUND     c7111   
 BV BOUND     c7112   
 BV BOUND     c7113   
 BV BOUND     c7114   
 BV BOUND     c7115   
 BV BOUND     c7116   
 BV BOUND     c7117   
 BV BOUND     c7118   
 BV BOUND     c7119   
 BV BOUND     c7120   
 BV BOUND     c7121   
 BV BOUND     c7122   
 BV BOUND     c7123   
 BV BOUND     c7124   
 BV BOUND     c7125   
 BV BOUND     c7126   
 BV BOUND     c7127   
 BV BOUND     c7128   
 BV BOUND     c7129   
 BV BOUND     c7130   
 BV BOUND     c7131   
 BV BOUND     c7132   
 BV BOUND     c7133   
 BV BOUND     c7134   
 BV BOUND     c7135   
 BV BOUND     c7136   
 BV BOUND     c7137   
 BV BOUND     c7138   
 BV BOUND     c7139   
 BV BOUND     c7140   
 BV BOUND     c7141   
 BV BOUND     c7142   
 BV BOUND     c7143   
 BV BOUND     c7144   
 BV BOUND     c7145   
 BV BOUND     c7146   
 BV BOUND     c7147   
 BV BOUND     c7148   
 BV BOUND     c7149   
 BV BOUND     c7150   
 BV BOUND     c7151   
 BV BOUND     c7152   
 BV BOUND     c7153   
 BV BOUND     c7154   
 BV BOUND     c7155   
 BV BOUND     c7156   
 BV BOUND     c7157   
 BV BOUND     c7158   
 BV BOUND     c7159   
 BV BOUND     c7160   
 BV BOUND     c7161   
 BV BOUND     c7162   
 BV BOUND     c7163   
 BV BOUND     c7164   
 BV BOUND     c7165   
 BV BOUND     c7166   
 BV BOUND     c7167   
 BV BOUND     c7168   
 BV BOUND     c7169   
 BV BOUND     c7170   
 BV BOUND     c7171   
 BV BOUND     c7172   
 BV BOUND     c7173   
 BV BOUND     c7174   
 BV BOUND     c7175   
 BV BOUND     c7176   
 BV BOUND     c7177   
 BV BOUND     c7178   
 BV BOUND     c7179   
 BV BOUND     c7180   
 BV BOUND     c7181   
 BV BOUND     c7182   
 BV BOUND     c7183   
 BV BOUND     c7184   
 BV BOUND     c7185   
 BV BOUND     c7186   
 BV BOUND     c7187   
 BV BOUND     c7188   
 BV BOUND     c7189   
 BV BOUND     c7190   
 BV BOUND     c7191   
 BV BOUND     c7192   
 BV BOUND     c7193   
 BV BOUND     c7194   
 BV BOUND     c7195   
 BV BOUND     c7196   
 BV BOUND     c7197   
 BV BOUND     c7198   
 BV BOUND     c7199   
 BV BOUND     c7200   
 BV BOUND     c7201   
 BV BOUND     c7202   
 BV BOUND     c7203   
 BV BOUND     c7204   
 BV BOUND     c7205   
 BV BOUND     c7206   
 BV BOUND     c7207   
 BV BOUND     c7208   
 BV BOUND     c7209   
 BV BOUND     c7210   
 BV BOUND     c7211   
 BV BOUND     c7212   
 BV BOUND     c7213   
 BV BOUND     c7214   
 BV BOUND     c7215   
 BV BOUND     c7216   
 BV BOUND     c7217   
 BV BOUND     c7218   
 BV BOUND     c7219   
 BV BOUND     c7220   
 BV BOUND     c7221   
 BV BOUND     c7222   
 BV BOUND     c7223   
 BV BOUND     c7224   
 BV BOUND     c7225   
 BV BOUND     c7226   
 BV BOUND     c7227   
 BV BOUND     c7228   
 BV BOUND     c7229   
 BV BOUND     c7230   
 BV BOUND     c7231   
 BV BOUND     c7232   
 BV BOUND     c7233   
 BV BOUND     c7234   
 BV BOUND     c7235   
 BV BOUND     c7236   
 BV BOUND     c7237   
 BV BOUND     c7238   
 BV BOUND     c7239   
 BV BOUND     c7240   
 BV BOUND     c7241   
 BV BOUND     c7242   
 BV BOUND     c7243   
 BV BOUND     c7244   
 BV BOUND     c7245   
 BV BOUND     c7246   
 BV BOUND     c7247   
 BV BOUND     c7248   
 BV BOUND     c7249   
 BV BOUND     c7250   
 BV BOUND     c7251   
 BV BOUND     c7252   
 BV BOUND     c7253   
 BV BOUND     c7254   
 BV BOUND     c7255   
 BV BOUND     c7256   
 BV BOUND     c7257   
 BV BOUND     c7258   
 BV BOUND     c7259   
 BV BOUND     c7260   
 BV BOUND     c7261   
 BV BOUND     c7262   
 BV BOUND     c7263   
 BV BOUND     c7264   
 BV BOUND     c7265   
 BV BOUND     c7266   
 BV BOUND     c7267   
 BV BOUND     c7268   
 BV BOUND     c7269   
 BV BOUND     c7270   
 BV BOUND     c7271   
 BV BOUND     c7272   
 BV BOUND     c7273   
 BV BOUND     c7274   
 BV BOUND     c7275   
 BV BOUND     c7276   
 BV BOUND     c7277   
 BV BOUND     c7278   
 BV BOUND     c7279   
 BV BOUND     c7280   
 BV BOUND     c7281   
 BV BOUND     c7282   
 BV BOUND     c7283   
 BV BOUND     c7284   
 BV BOUND     c7285   
 BV BOUND     c7286   
 BV BOUND     c7287   
 BV BOUND     c7288   
 BV BOUND     c7289   
 BV BOUND     c7290   
 BV BOUND     c7291   
 BV BOUND     c7292   
 BV BOUND     c7293   
 BV BOUND     c7294   
 BV BOUND     c7295   
 BV BOUND     c7296   
 BV BOUND     c7297   
 BV BOUND     c7298   
 BV BOUND     c7299   
 BV BOUND     c7300   
 BV BOUND     c7301   
 BV BOUND     c7302   
 BV BOUND     c7303   
 BV BOUND     c7304   
 BV BOUND     c7305   
 BV BOUND     c7306   
 BV BOUND     c7307   
 BV BOUND     c7308   
 BV BOUND     c7309   
 BV BOUND     c7310   
 BV BOUND     c7311   
 BV BOUND     c7312   
 BV BOUND     c7313   
 BV BOUND     c7314   
 BV BOUND     c7315   
 BV BOUND     c7316   
 BV BOUND     c7317   
 BV BOUND     c7318   
 BV BOUND     c7319   
 BV BOUND     c7320   
 BV BOUND     c7321   
 BV BOUND     c7322   
 BV BOUND     c7323   
 BV BOUND     c7324   
 BV BOUND     c7325   
 BV BOUND     c7326   
 BV BOUND     c7327   
 BV BOUND     c7328   
 BV BOUND     c7329   
 BV BOUND     c7330   
 BV BOUND     c7331   
 BV BOUND     c7332   
 BV BOUND     c7333   
 BV BOUND     c7334   
 BV BOUND     c7335   
 BV BOUND     c7336   
 BV BOUND     c7337   
 BV BOUND     c7338   
 BV BOUND     c7339   
 BV BOUND     c7340   
 BV BOUND     c7341   
 BV BOUND     c7342   
 BV BOUND     c7343   
 BV BOUND     c7344   
 BV BOUND     c7345   
 BV BOUND     c7346   
 BV BOUND     c7347   
 BV BOUND     c7348   
 BV BOUND     c7349   
 BV BOUND     c7350   
 BV BOUND     c7351   
 BV BOUND     c7352   
 BV BOUND     c7353   
 BV BOUND     c7354   
 BV BOUND     c7355   
 BV BOUND     c7356   
 BV BOUND     c7357   
 BV BOUND     c7358   
 BV BOUND     c7359   
 BV BOUND     c7360   
 BV BOUND     c7361   
 BV BOUND     c7362   
 BV BOUND     c7363   
 BV BOUND     c7364   
 BV BOUND     c7365   
 BV BOUND     c7366   
 BV BOUND     c7367   
 BV BOUND     c7368   
 BV BOUND     c7369   
 BV BOUND     c7370   
 BV BOUND     c7371   
 BV BOUND     c7372   
 BV BOUND     c7373   
 BV BOUND     c7374   
 BV BOUND     c7375   
 BV BOUND     c7376   
 BV BOUND     c7377   
 BV BOUND     c7378   
 BV BOUND     c7379   
 BV BOUND     c7380   
 BV BOUND     c7381   
 BV BOUND     c7382   
 BV BOUND     c7383   
 BV BOUND     c7384   
 BV BOUND     c7385   
 BV BOUND     c7386   
 BV BOUND     c7387   
 BV BOUND     c7388   
 BV BOUND     c7389   
 BV BOUND     c7390   
 BV BOUND     c7391   
 BV BOUND     c7392   
 BV BOUND     c7393   
 BV BOUND     c7394   
 BV BOUND     c7395   
 BV BOUND     c7396   
 BV BOUND     c7397   
 BV BOUND     c7398   
 BV BOUND     c7399   
 BV BOUND     c7400   
 BV BOUND     c7401   
 BV BOUND     c7402   
 BV BOUND     c7403   
 BV BOUND     c7404   
 BV BOUND     c7405   
 BV BOUND     c7406   
 BV BOUND     c7407   
 BV BOUND     c7408   
 BV BOUND     c7409   
 BV BOUND     c7410   
 BV BOUND     c7411   
 BV BOUND     c7412   
 BV BOUND     c7413   
 BV BOUND     c7414   
 BV BOUND     c7415   
 BV BOUND     c7416   
 BV BOUND     c7417   
 BV BOUND     c7418   
 BV BOUND     c7419   
 BV BOUND     c7420   
 BV BOUND     c7421   
 BV BOUND     c7422   
 BV BOUND     c7423   
 BV BOUND     c7424   
 BV BOUND     c7425   
 BV BOUND     c7426   
 BV BOUND     c7427   
 BV BOUND     c7428   
 BV BOUND     c7429   
 BV BOUND     c7430   
 BV BOUND     c7431   
 BV BOUND     c7432   
 BV BOUND     c7433   
 BV BOUND     c7434   
 BV BOUND     c7435   
 BV BOUND     c7436   
 BV BOUND     c7437   
 BV BOUND     c7438   
 BV BOUND     c7439   
 BV BOUND     c7440   
 BV BOUND     c7441   
 BV BOUND     c7442   
 BV BOUND     c7443   
 BV BOUND     c7444   
 BV BOUND     c7445   
 BV BOUND     c7446   
 BV BOUND     c7447   
 BV BOUND     c7448   
 BV BOUND     c7449   
 BV BOUND     c7450   
 BV BOUND     c7451   
 BV BOUND     c7452   
 BV BOUND     c7453   
 BV BOUND     c7454   
 BV BOUND     c7455   
 BV BOUND     c7456   
 BV BOUND     c7457   
 BV BOUND     c7458   
 BV BOUND     c7459   
 BV BOUND     c7460   
 BV BOUND     c7461   
 BV BOUND     c7462   
 BV BOUND     c7463   
 BV BOUND     c7464   
 BV BOUND     c7465   
 BV BOUND     c7466   
 BV BOUND     c7467   
 BV BOUND     c7468   
 BV BOUND     c7469   
 BV BOUND     c7470   
 BV BOUND     c7471   
 BV BOUND     c7472   
 BV BOUND     c7473   
 BV BOUND     c7474   
 BV BOUND     c7475   
 BV BOUND     c7476   
 BV BOUND     c7477   
 BV BOUND     c7478   
 BV BOUND     c7479   
 BV BOUND     c7480   
 BV BOUND     c7481   
 BV BOUND     c7482   
 BV BOUND     c7483   
 BV BOUND     c7484   
 BV BOUND     c7485   
 BV BOUND     c7486   
 BV BOUND     c7487   
 BV BOUND     c7488   
 BV BOUND     c7489   
 BV BOUND     c7490   
 BV BOUND     c7491   
 BV BOUND     c7492   
 BV BOUND     c7493   
 BV BOUND     c7494   
 BV BOUND     c7495   
 BV BOUND     c7496   
 BV BOUND     c7497   
 BV BOUND     c7498   
 BV BOUND     c7499   
 BV BOUND     c7500   
 BV BOUND     c7501   
 BV BOUND     c7502   
 BV BOUND     c7503   
 BV BOUND     c7504   
 BV BOUND     c7505   
 BV BOUND     c7506   
 BV BOUND     c7507   
 BV BOUND     c7508   
 BV BOUND     c7509   
 BV BOUND     c7510   
 BV BOUND     c7511   
 BV BOUND     c7512   
 BV BOUND     c7513   
 BV BOUND     c7514   
 BV BOUND     c7515   
 BV BOUND     c7516   
 BV BOUND     c7517   
 BV BOUND     c7518   
 BV BOUND     c7519   
 BV BOUND     c7520   
 BV BOUND     c7521   
 BV BOUND     c7522   
 BV BOUND     c7523   
 BV BOUND     c7524   
 BV BOUND     c7525   
 BV BOUND     c7526   
 BV BOUND     c7527   
 BV BOUND     c7528   
 BV BOUND     c7529   
 BV BOUND     c7530   
 BV BOUND     c7531   
 BV BOUND     c7532   
 BV BOUND     c7533   
 BV BOUND     c7534   
 BV BOUND     c7535   
 BV BOUND     c7536   
 BV BOUND     c7537   
 BV BOUND     c7538   
 BV BOUND     c7539   
 BV BOUND     c7540   
 BV BOUND     c7541   
 BV BOUND     c7542   
 BV BOUND     c7543   
 BV BOUND     c7544   
 BV BOUND     c7545   
 BV BOUND     c7546   
 BV BOUND     c7547   
 BV BOUND     c7548   
 BV BOUND     c7549   
 BV BOUND     c7550   
 BV BOUND     c7551   
 BV BOUND     c7552   
 BV BOUND     c7553   
 BV BOUND     c7554   
 BV BOUND     c7555   
 BV BOUND     c7556   
 BV BOUND     c7557   
 BV BOUND     c7558   
 BV BOUND     c7559   
 BV BOUND     c7560   
 BV BOUND     c7561   
 BV BOUND     c7562   
 BV BOUND     c7563   
 BV BOUND     c7564   
 BV BOUND     c7565   
 BV BOUND     c7566   
 BV BOUND     c7567   
 BV BOUND     c7568   
 BV BOUND     c7569   
 BV BOUND     c7570   
 BV BOUND     c7571   
 BV BOUND     c7572   
 BV BOUND     c7573   
 BV BOUND     c7574   
 BV BOUND     c7575   
 BV BOUND     c7576   
 BV BOUND     c7577   
 BV BOUND     c7578   
 BV BOUND     c7579   
 BV BOUND     c7580   
 BV BOUND     c7581   
 BV BOUND     c7582   
 BV BOUND     c7583   
 BV BOUND     c7584   
 BV BOUND     c7585   
 BV BOUND     c7586   
 BV BOUND     c7587   
 BV BOUND     c7588   
 BV BOUND     c7589   
 BV BOUND     c7590   
 BV BOUND     c7591   
 BV BOUND     c7592   
 BV BOUND     c7593   
 BV BOUND     c7594   
 BV BOUND     c7595   
 BV BOUND     c7596   
 BV BOUND     c7597   
 BV BOUND     c7598   
 BV BOUND     c7599   
 BV BOUND     c7600   
 BV BOUND     c7601   
 BV BOUND     c7602   
 BV BOUND     c7603   
 BV BOUND     c7604   
 BV BOUND     c7605   
 BV BOUND     c7606   
 BV BOUND     c7607   
 BV BOUND     c7608   
 BV BOUND     c7609   
 BV BOUND     c7610   
 BV BOUND     c7611   
 BV BOUND     c7612   
 BV BOUND     c7613   
 BV BOUND     c7614   
 BV BOUND     c7615   
 BV BOUND     c7616   
 BV BOUND     c7617   
 BV BOUND     c7618   
 BV BOUND     c7619   
 BV BOUND     c7620   
 BV BOUND     c7621   
 BV BOUND     c7622   
 BV BOUND     c7623   
 BV BOUND     c7624   
 BV BOUND     c7625   
 BV BOUND     c7626   
 BV BOUND     c7627   
 BV BOUND     c7628   
 BV BOUND     c7629   
 BV BOUND     c7630   
 BV BOUND     c7631   
 BV BOUND     c7632   
 BV BOUND     c7633   
 BV BOUND     c7634   
 BV BOUND     c7635   
 BV BOUND     c7636   
 BV BOUND     c7637   
 BV BOUND     c7638   
 BV BOUND     c7639   
 BV BOUND     c7640   
 BV BOUND     c7641   
 BV BOUND     c7642   
 BV BOUND     c7643   
 BV BOUND     c7644   
 BV BOUND     c7645   
 BV BOUND     c7646   
 BV BOUND     c7647   
 BV BOUND     c7648   
 BV BOUND     c7649   
 BV BOUND     c7650   
 BV BOUND     c7651   
 BV BOUND     c7652   
 BV BOUND     c7653   
 BV BOUND     c7654   
 BV BOUND     c7655   
 BV BOUND     c7656   
 BV BOUND     c7657   
 BV BOUND     c7658   
 BV BOUND     c7659   
 BV BOUND     c7660   
 BV BOUND     c7661   
 BV BOUND     c7662   
 BV BOUND     c7663   
 BV BOUND     c7664   
 BV BOUND     c7665   
 BV BOUND     c7666   
 BV BOUND     c7667   
 BV BOUND     c7668   
 BV BOUND     c7669   
 BV BOUND     c7670   
 BV BOUND     c7671   
 BV BOUND     c7672   
 BV BOUND     c7673   
 BV BOUND     c7674   
 BV BOUND     c7675   
 BV BOUND     c7676   
 BV BOUND     c7677   
 BV BOUND     c7678   
 BV BOUND     c7679   
 BV BOUND     c7680   
 BV BOUND     c7681   
 BV BOUND     c7682   
 BV BOUND     c7683   
 BV BOUND     c7684   
 BV BOUND     c7685   
 BV BOUND     c7686   
 BV BOUND     c7687   
 BV BOUND     c7688   
 BV BOUND     c7689   
 BV BOUND     c7690   
 BV BOUND     c7691   
 BV BOUND     c7692   
 BV BOUND     c7693   
 BV BOUND     c7694   
 BV BOUND     c7695   
 BV BOUND     c7696   
 BV BOUND     c7697   
 BV BOUND     c7698   
 BV BOUND     c7699   
 BV BOUND     c7700   
 BV BOUND     c7701   
 BV BOUND     c7702   
 BV BOUND     c7703   
 BV BOUND     c7704   
 BV BOUND     c7705   
 BV BOUND     c7706   
 BV BOUND     c7707   
 BV BOUND     c7708   
 BV BOUND     c7709   
 BV BOUND     c7710   
 BV BOUND     c7711   
 BV BOUND     c7712   
 BV BOUND     c7713   
 BV BOUND     c7714   
 BV BOUND     c7715   
 BV BOUND     c7716   
 BV BOUND     c7717   
 BV BOUND     c7718   
 BV BOUND     c7719   
 BV BOUND     c7720   
 BV BOUND     c7721   
 BV BOUND     c7722   
 BV BOUND     c7723   
 BV BOUND     c7724   
 BV BOUND     c7725   
 BV BOUND     c7726   
 BV BOUND     c7727   
 BV BOUND     c7728   
 BV BOUND     c7729   
 BV BOUND     c7730   
 BV BOUND     c7731   
 BV BOUND     c7732   
 BV BOUND     c7733   
 BV BOUND     c7734   
 BV BOUND     c7735   
 BV BOUND     c7736   
 BV BOUND     c7737   
 BV BOUND     c7738   
 BV BOUND     c7739   
 BV BOUND     c7740   
 BV BOUND     c7741   
 BV BOUND     c7742   
 BV BOUND     c7743   
 BV BOUND     c7744   
 BV BOUND     c7745   
 BV BOUND     c7746   
 BV BOUND     c7747   
 BV BOUND     c7748   
 BV BOUND     c7749   
 BV BOUND     c7750   
 BV BOUND     c7751   
 BV BOUND     c7752   
 BV BOUND     c7753   
 BV BOUND     c7754   
 BV BOUND     c7755   
 BV BOUND     c7756   
 BV BOUND     c7757   
 BV BOUND     c7758   
 BV BOUND     c7759   
 BV BOUND     c7760   
 BV BOUND     c7761   
 BV BOUND     c7762   
 BV BOUND     c7763   
 BV BOUND     c7764   
 BV BOUND     c7765   
 BV BOUND     c7766   
 BV BOUND     c7767   
 BV BOUND     c7768   
 BV BOUND     c7769   
 BV BOUND     c7770   
 BV BOUND     c7771   
 BV BOUND     c7772   
 BV BOUND     c7773   
 BV BOUND     c7774   
 BV BOUND     c7775   
 BV BOUND     c7776   
 BV BOUND     c7777   
 BV BOUND     c7778   
 BV BOUND     c7779   
 BV BOUND     c7780   
 BV BOUND     c7781   
 BV BOUND     c7782   
 BV BOUND     c7783   
 BV BOUND     c7784   
 BV BOUND     c7785   
 BV BOUND     c7786   
 BV BOUND     c7787   
 BV BOUND     c7788   
 BV BOUND     c7789   
 BV BOUND     c7790   
 BV BOUND     c7791   
 BV BOUND     c7792   
 BV BOUND     c7793   
 BV BOUND     c7794   
 BV BOUND     c7795   
 BV BOUND     c7796   
 BV BOUND     c7797   
 BV BOUND     c7798   
 BV BOUND     c7799   
 BV BOUND     c7800   
 BV BOUND     c7801   
 BV BOUND     c7802   
 BV BOUND     c7803   
 BV BOUND     c7804   
 BV BOUND     c7805   
 BV BOUND     c7806   
 BV BOUND     c7807   
 BV BOUND     c7808   
 BV BOUND     c7809   
 BV BOUND     c7810   
 BV BOUND     c7811   
 BV BOUND     c7812   
 BV BOUND     c7813   
 BV BOUND     c7814   
 BV BOUND     c7815   
 BV BOUND     c7816   
 BV BOUND     c7817   
 BV BOUND     c7818   
 BV BOUND     c7819   
 BV BOUND     c7820   
 BV BOUND     c7821   
 BV BOUND     c7822   
 BV BOUND     c7823   
 BV BOUND     c7824   
 BV BOUND     c7825   
 BV BOUND     c7826   
 BV BOUND     c7827   
 BV BOUND     c7828   
 BV BOUND     c7829   
 BV BOUND     c7830   
 BV BOUND     c7831   
 BV BOUND     c7832   
 BV BOUND     c7833   
 BV BOUND     c7834   
 BV BOUND     c7835   
 BV BOUND     c7836   
 BV BOUND     c7837   
 BV BOUND     c7838   
 BV BOUND     c7839   
 BV BOUND     c7840   
 BV BOUND     c7841   
 BV BOUND     c7842   
 BV BOUND     c7843   
 BV BOUND     c7844   
 BV BOUND     c7845   
 BV BOUND     c7846   
 BV BOUND     c7847   
 BV BOUND     c7848   
 BV BOUND     c7849   
 BV BOUND     c7850   
 BV BOUND     c7851   
 BV BOUND     c7852   
 BV BOUND     c7853   
 BV BOUND     c7854   
 BV BOUND     c7855   
 BV BOUND     c7856   
 BV BOUND     c7857   
 BV BOUND     c7858   
 BV BOUND     c7859   
 BV BOUND     c7860   
 BV BOUND     c7861   
 BV BOUND     c7862   
 BV BOUND     c7863   
 BV BOUND     c7864   
 BV BOUND     c7865   
 BV BOUND     c7866   
 BV BOUND     c7867   
 BV BOUND     c7868   
 BV BOUND     c7869   
 BV BOUND     c7870   
 BV BOUND     c7871   
 BV BOUND     c7872   
 BV BOUND     c7873   
 BV BOUND     c7874   
 BV BOUND     c7875   
 BV BOUND     c7876   
 BV BOUND     c7877   
 BV BOUND     c7878   
 BV BOUND     c7879   
 BV BOUND     c7880   
 BV BOUND     c7881   
 BV BOUND     c7882   
 BV BOUND     c7883   
 BV BOUND     c7884   
 BV BOUND     c7885   
 BV BOUND     c7886   
 BV BOUND     c7887   
 BV BOUND     c7888   
 BV BOUND     c7889   
 BV BOUND     c7890   
 BV BOUND     c7891   
 BV BOUND     c7892   
 BV BOUND     c7893   
 BV BOUND     c7894   
 BV BOUND     c7895   
 BV BOUND     c7896   
 BV BOUND     c7897   
 BV BOUND     c7898   
 BV BOUND     c7899   
 BV BOUND     c7900   
 BV BOUND     c7901   
 BV BOUND     c7902   
 BV BOUND     c7903   
 BV BOUND     c7904   
 BV BOUND     c7905   
 BV BOUND     c7906   
 BV BOUND     c7907   
 BV BOUND     c7908   
 BV BOUND     c7909   
 BV BOUND     c7910   
 BV BOUND     c7911   
 BV BOUND     c7912   
 BV BOUND     c7913   
 BV BOUND     c7914   
 BV BOUND     c7915   
 BV BOUND     c7916   
 BV BOUND     c7917   
 BV BOUND     c7918   
 BV BOUND     c7919   
 BV BOUND     c7920   
 BV BOUND     c7921   
 BV BOUND     c7922   
 BV BOUND     c7923   
 BV BOUND     c7924   
 BV BOUND     c7925   
 BV BOUND     c7926   
 BV BOUND     c7927   
 BV BOUND     c7928   
 BV BOUND     c7929   
 BV BOUND     c7930   
 BV BOUND     c7931   
 BV BOUND     c7932   
 BV BOUND     c7933   
 BV BOUND     c7934   
 BV BOUND     c7935   
 BV BOUND     c7936   
 BV BOUND     c7937   
 BV BOUND     c7938   
 BV BOUND     c7939   
 BV BOUND     c7940   
 BV BOUND     c7941   
 BV BOUND     c7942   
 BV BOUND     c7943   
 BV BOUND     c7944   
 BV BOUND     c7945   
 BV BOUND     c7946   
 BV BOUND     c7947   
 BV BOUND     c7948   
 BV BOUND     c7949   
 BV BOUND     c7950   
 BV BOUND     c7951   
 BV BOUND     c7952   
 BV BOUND     c7953   
 BV BOUND     c7954   
 BV BOUND     c7955   
 BV BOUND     c7956   
 BV BOUND     c7957   
 BV BOUND     c7958   
 BV BOUND     c7959   
 BV BOUND     c7960   
 BV BOUND     c7961   
 BV BOUND     c7962   
 BV BOUND     c7963   
 BV BOUND     c7964   
 BV BOUND     c7965   
 BV BOUND     c7966   
 BV BOUND     c7967   
 BV BOUND     c7968   
 BV BOUND     c7969   
 BV BOUND     c7970   
 BV BOUND     c7971   
 BV BOUND     c7972   
 BV BOUND     c7973   
 BV BOUND     c7974   
 BV BOUND     c7975   
 BV BOUND     c7976   
 BV BOUND     c7977   
 BV BOUND     c7978   
 BV BOUND     c7979   
 BV BOUND     c7980   
 BV BOUND     c7981   
 BV BOUND     c7982   
 BV BOUND     c7983   
 BV BOUND     c7984   
 BV BOUND     c7985   
 BV BOUND     c7986   
 BV BOUND     c7987   
 BV BOUND     c7988   
 BV BOUND     c7989   
 BV BOUND     c7990   
 BV BOUND     c7991   
 BV BOUND     c7992   
 BV BOUND     c7993   
 BV BOUND     c7994   
 BV BOUND     c7995   
 BV BOUND     c7996   
 BV BOUND     c7997   
 BV BOUND     c7998   
 BV BOUND     c7999   
 BV BOUND     c8000   
 BV BOUND     c8001   
 BV BOUND     c8002   
 BV BOUND     c8003   
 BV BOUND     c8004   
 BV BOUND     c8005   
 BV BOUND     c8006   
 BV BOUND     c8007   
 BV BOUND     c8008   
 BV BOUND     c8009   
 BV BOUND     c8010   
 BV BOUND     c8011   
 BV BOUND     c8012   
 BV BOUND     c8013   
 BV BOUND     c8014   
 BV BOUND     c8015   
 BV BOUND     c8016   
 BV BOUND     c8017   
 BV BOUND     c8018   
 BV BOUND     c8019   
 BV BOUND     c8020   
 BV BOUND     c8021   
 BV BOUND     c8022   
 BV BOUND     c8023   
 BV BOUND     c8024   
 BV BOUND     c8025   
 BV BOUND     c8026   
 BV BOUND     c8027   
 BV BOUND     c8028   
 BV BOUND     c8029   
 BV BOUND     c8030   
 BV BOUND     c8031   
 BV BOUND     c8032   
 BV BOUND     c8033   
 BV BOUND     c8034   
 BV BOUND     c8035   
 BV BOUND     c8036   
 BV BOUND     c8037   
 BV BOUND     c8038   
 BV BOUND     c8039   
 BV BOUND     c8040   
 BV BOUND     c8041   
 BV BOUND     c8042   
 BV BOUND     c8043   
 BV BOUND     c8044   
 BV BOUND     c8045   
 BV BOUND     c8046   
 BV BOUND     c8047   
 BV BOUND     c8048   
 BV BOUND     c8049   
 BV BOUND     c8050   
 BV BOUND     c8051   
 BV BOUND     c8052   
 BV BOUND     c8053   
 BV BOUND     c8054   
 BV BOUND     c8055   
 BV BOUND     c8056   
 BV BOUND     c8057   
 BV BOUND     c8058   
 BV BOUND     c8059   
 BV BOUND     c8060   
 BV BOUND     c8061   
 BV BOUND     c8062   
 BV BOUND     c8063   
 BV BOUND     c8064   
 BV BOUND     c8065   
 BV BOUND     c8066   
 BV BOUND     c8067   
 BV BOUND     c8068   
 BV BOUND     c8069   
 BV BOUND     c8070   
 BV BOUND     c8071   
 BV BOUND     c8072   
 BV BOUND     c8073   
 BV BOUND     c8074   
 BV BOUND     c8075   
 BV BOUND     c8076   
 BV BOUND     c8077   
 BV BOUND     c8078   
 BV BOUND     c8079   
 BV BOUND     c8080   
 BV BOUND     c8081   
 BV BOUND     c8082   
 BV BOUND     c8083   
 BV BOUND     c8084   
 BV BOUND     c8085   
 BV BOUND     c8086   
 BV BOUND     c8087   
 BV BOUND     c8088   
 BV BOUND     c8089   
 BV BOUND     c8090   
 BV BOUND     c8091   
 BV BOUND     c8092   
 BV BOUND     c8093   
 BV BOUND     c8094   
 BV BOUND     c8095   
 BV BOUND     c8096   
 BV BOUND     c8097   
 BV BOUND     c8098   
 BV BOUND     c8099   
 BV BOUND     c8100   
 BV BOUND     c8101   
 BV BOUND     c8102   
 BV BOUND     c8103   
 BV BOUND     c8104   
 BV BOUND     c8105   
 BV BOUND     c8106   
 BV BOUND     c8107   
 BV BOUND     c8108   
 BV BOUND     c8109   
 BV BOUND     c8110   
 BV BOUND     c8111   
 BV BOUND     c8112   
 BV BOUND     c8113   
 BV BOUND     c8114   
 BV BOUND     c8115   
 BV BOUND     c8116   
 BV BOUND     c8117   
 BV BOUND     c8118   
 BV BOUND     c8119   
 BV BOUND     c8120   
 BV BOUND     c8121   
 BV BOUND     c8122   
 BV BOUND     c8123   
 BV BOUND     c8124   
 BV BOUND     c8125   
 BV BOUND     c8126   
 BV BOUND     c8127   
 BV BOUND     c8128   
 BV BOUND     c8129   
 BV BOUND     c8130   
 BV BOUND     c8131   
 BV BOUND     c8132   
 BV BOUND     c8133   
 BV BOUND     c8134   
 BV BOUND     c8135   
 BV BOUND     c8136   
 BV BOUND     c8137   
 BV BOUND     c8138   
 BV BOUND     c8139   
 BV BOUND     c8140   
 BV BOUND     c8141   
 BV BOUND     c8142   
 BV BOUND     c8143   
 BV BOUND     c8144   
 BV BOUND     c8145   
 BV BOUND     c8146   
 BV BOUND     c8147   
 BV BOUND     c8148   
 BV BOUND     c8149   
 BV BOUND     c8150   
 BV BOUND     c8151   
 BV BOUND     c8152   
 BV BOUND     c8153   
 BV BOUND     c8154   
 BV BOUND     c8155   
 BV BOUND     c8156   
 BV BOUND     c8157   
 BV BOUND     c8158   
 BV BOUND     c8159   
 BV BOUND     c8160   
 BV BOUND     c8161   
 BV BOUND     c8162   
 BV BOUND     c8163   
 BV BOUND     c8164   
 BV BOUND     c8165   
 BV BOUND     c8166   
 BV BOUND     c8167   
 BV BOUND     c8168   
 BV BOUND     c8169   
 BV BOUND     c8170   
 BV BOUND     c8171   
 BV BOUND     c8172   
 BV BOUND     c8173   
 BV BOUND     c8174   
 BV BOUND     c8175   
 BV BOUND     c8176   
 BV BOUND     c8177   
 BV BOUND     c8178   
 BV BOUND     c8179   
 BV BOUND     c8180   
 BV BOUND     c8181   
 BV BOUND     c8182   
 BV BOUND     c8183   
 BV BOUND     c8184   
 BV BOUND     c8185   
 BV BOUND     c8186   
 BV BOUND     c8187   
 BV BOUND     c8188   
 BV BOUND     c8189   
 BV BOUND     c8190   
 BV BOUND     c8191   
 BV BOUND     c8192   
 BV BOUND     c8193   
 BV BOUND     c8194   
 BV BOUND     c8195   
 BV BOUND     c8196   
 BV BOUND     c8197   
 BV BOUND     c8198   
 BV BOUND     c8199   
 BV BOUND     c8200   
 BV BOUND     c8201   
 BV BOUND     c8202   
 BV BOUND     c8203   
 BV BOUND     c8204   
 BV BOUND     c8205   
 BV BOUND     c8206   
 BV BOUND     c8207   
 BV BOUND     c8208   
 BV BOUND     c8209   
 BV BOUND     c8210   
 BV BOUND     c8211   
 BV BOUND     c8212   
 BV BOUND     c8213   
 BV BOUND     c8214   
 BV BOUND     c8215   
 BV BOUND     c8216   
 BV BOUND     c8217   
 BV BOUND     c8218   
 BV BOUND     c8219   
 BV BOUND     c8220   
 BV BOUND     c8221   
 BV BOUND     c8222   
 BV BOUND     c8223   
 BV BOUND     c8224   
 BV BOUND     c8225   
 BV BOUND     c8226   
 BV BOUND     c8227   
 BV BOUND     c8228   
 BV BOUND     c8229   
 BV BOUND     c8230   
 BV BOUND     c8231   
 BV BOUND     c8232   
 BV BOUND     c8233   
 BV BOUND     c8234   
 BV BOUND     c8235   
 BV BOUND     c8236   
 BV BOUND     c8237   
 BV BOUND     c8238   
 BV BOUND     c8239   
 BV BOUND     c8240   
 BV BOUND     c8241   
 BV BOUND     c8242   
 BV BOUND     c8243   
 BV BOUND     c8244   
 BV BOUND     c8245   
 BV BOUND     c8246   
 BV BOUND     c8247   
 BV BOUND     c8248   
 BV BOUND     c8249   
 BV BOUND     c8250   
 BV BOUND     c8251   
 BV BOUND     c8252   
 BV BOUND     c8253   
 BV BOUND     c8254   
 BV BOUND     c8255   
 BV BOUND     c8256   
 BV BOUND     c8257   
 BV BOUND     c8258   
 BV BOUND     c8259   
 BV BOUND     c8260   
 BV BOUND     c8261   
 BV BOUND     c8262   
 BV BOUND     c8263   
 BV BOUND     c8264   
 BV BOUND     c8265   
 BV BOUND     c8266   
 BV BOUND     c8267   
 BV BOUND     c8268   
 BV BOUND     c8269   
 BV BOUND     c8270   
 BV BOUND     c8271   
 BV BOUND     c8272   
 BV BOUND     c8273   
 BV BOUND     c8274   
 BV BOUND     c8275   
 BV BOUND     c8276   
 BV BOUND     c8277   
 BV BOUND     c8278   
 BV BOUND     c8279   
 BV BOUND     c8280   
 BV BOUND     c8281   
 BV BOUND     c8282   
 BV BOUND     c8283   
 BV BOUND     c8284   
 BV BOUND     c8285   
 BV BOUND     c8286   
 BV BOUND     c8287   
 BV BOUND     c8288   
 BV BOUND     c8289   
 BV BOUND     c8290   
 BV BOUND     c8291   
 BV BOUND     c8292   
 BV BOUND     c8293   
 BV BOUND     c8294   
 BV BOUND     c8295   
 BV BOUND     c8296   
 BV BOUND     c8297   
 BV BOUND     c8298   
 BV BOUND     c8299   
 BV BOUND     c8300   
 BV BOUND     c8301   
 BV BOUND     c8302   
 BV BOUND     c8303   
 BV BOUND     c8304   
 BV BOUND     c8305   
 BV BOUND     c8306   
 BV BOUND     c8307   
 BV BOUND     c8308   
 BV BOUND     c8309   
 BV BOUND     c8310   
 BV BOUND     c8311   
 BV BOUND     c8312   
 BV BOUND     c8313   
 BV BOUND     c8314   
 BV BOUND     c8315   
 BV BOUND     c8316   
 BV BOUND     c8317   
 BV BOUND     c8318   
 BV BOUND     c8319   
 BV BOUND     c8320   
 BV BOUND     c8321   
 BV BOUND     c8322   
 BV BOUND     c8323   
 BV BOUND     c8324   
 BV BOUND     c8325   
 BV BOUND     c8326   
 BV BOUND     c8327   
 BV BOUND     c8328   
 BV BOUND     c8329   
 BV BOUND     c8330   
 BV BOUND     c8331   
 BV BOUND     c8332   
 BV BOUND     c8333   
 BV BOUND     c8334   
 BV BOUND     c8335   
 BV BOUND     c8336   
 BV BOUND     c8337   
 BV BOUND     c8338   
 BV BOUND     c8339   
 BV BOUND     c8340   
 BV BOUND     c8341   
 BV BOUND     c8342   
 BV BOUND     c8343   
 BV BOUND     c8344   
 BV BOUND     c8345   
 BV BOUND     c8346   
 BV BOUND     c8347   
 BV BOUND     c8348   
 BV BOUND     c8349   
 BV BOUND     c8350   
 BV BOUND     c8351   
 BV BOUND     c8352   
 BV BOUND     c8353   
 BV BOUND     c8354   
 BV BOUND     c8355   
 BV BOUND     c8356   
 BV BOUND     c8357   
 BV BOUND     c8358   
 BV BOUND     c8359   
 BV BOUND     c8360   
 BV BOUND     c8361   
 BV BOUND     c8362   
 BV BOUND     c8363   
 BV BOUND     c8364   
 BV BOUND     c8365   
 BV BOUND     c8366   
 BV BOUND     c8367   
 BV BOUND     c8368   
 BV BOUND     c8369   
 BV BOUND     c8370   
 BV BOUND     c8371   
 BV BOUND     c8372   
 BV BOUND     c8373   
 BV BOUND     c8374   
 BV BOUND     c8375   
 BV BOUND     c8376   
 BV BOUND     c8377   
 BV BOUND     c8378   
 BV BOUND     c8379   
 BV BOUND     c8380   
 BV BOUND     c8381   
 BV BOUND     c8382   
 BV BOUND     c8383   
 BV BOUND     c8384   
 BV BOUND     c8385   
 BV BOUND     c8386   
 BV BOUND     c8387   
 BV BOUND     c8388   
 BV BOUND     c8389   
 BV BOUND     c8390   
 BV BOUND     c8391   
 BV BOUND     c8392   
 BV BOUND     c8393   
 BV BOUND     c8394   
 BV BOUND     c8395   
 BV BOUND     c8396   
 BV BOUND     c8397   
 BV BOUND     c8398   
 BV BOUND     c8399   
 BV BOUND     c8400   
 BV BOUND     c8401   
 BV BOUND     c8402   
 BV BOUND     c8403   
 BV BOUND     c8404   
 BV BOUND     c8405   
 BV BOUND     c8406   
 BV BOUND     c8407   
 BV BOUND     c8408   
 BV BOUND     c8409   
 BV BOUND     c8410   
 BV BOUND     c8411   
 BV BOUND     c8412   
 BV BOUND     c8413   
 BV BOUND     c8414   
 BV BOUND     c8415   
 BV BOUND     c8416   
 BV BOUND     c8417   
 BV BOUND     c8418   
 BV BOUND     c8419   
 BV BOUND     c8420   
 BV BOUND     c8421   
 BV BOUND     c8422   
 BV BOUND     c8423   
 BV BOUND     c8424   
 BV BOUND     c8425   
 BV BOUND     c8426   
 BV BOUND     c8427   
 BV BOUND     c8428   
 BV BOUND     c8429   
 BV BOUND     c8430   
 BV BOUND     c8431   
 BV BOUND     c8432   
 BV BOUND     c8433   
 BV BOUND     c8434   
 BV BOUND     c8435   
 BV BOUND     c8436   
 BV BOUND     c8437   
 BV BOUND     c8438   
 BV BOUND     c8439   
 BV BOUND     c8440   
 BV BOUND     c8441   
 BV BOUND     c8442   
 BV BOUND     c8443   
 BV BOUND     c8444   
 BV BOUND     c8445   
 BV BOUND     c8446   
 BV BOUND     c8447   
 BV BOUND     c8448   
 BV BOUND     c8449   
 BV BOUND     c8450   
 BV BOUND     c8451   
 BV BOUND     c8452   
 BV BOUND     c8453   
 BV BOUND     c8454   
 BV BOUND     c8455   
 BV BOUND     c8456   
 BV BOUND     c8457   
 BV BOUND     c8458   
 BV BOUND     c8459   
 BV BOUND     c8460   
 BV BOUND     c8461   
 BV BOUND     c8462   
 BV BOUND     c8463   
 BV BOUND     c8464   
 BV BOUND     c8465   
 BV BOUND     c8466   
 BV BOUND     c8467   
 BV BOUND     c8468   
 BV BOUND     c8469   
 BV BOUND     c8470   
 BV BOUND     c8471   
 BV BOUND     c8472   
 BV BOUND     c8473   
 BV BOUND     c8474   
 BV BOUND     c8475   
 BV BOUND     c8476   
 BV BOUND     c8477   
 BV BOUND     c8478   
 BV BOUND     c8479   
 BV BOUND     c8480   
 BV BOUND     c8481   
 BV BOUND     c8482   
 BV BOUND     c8483   
 BV BOUND     c8484   
 BV BOUND     c8485   
 BV BOUND     c8486   
 BV BOUND     c8487   
 BV BOUND     c8488   
 BV BOUND     c8489   
 BV BOUND     c8490   
 BV BOUND     c8491   
 BV BOUND     c8492   
 BV BOUND     c8493   
 BV BOUND     c8494   
 BV BOUND     c8495   
 BV BOUND     c8496   
 BV BOUND     c8497   
 BV BOUND     c8498   
 BV BOUND     c8499   
 BV BOUND     c8500   
 BV BOUND     c8501   
 BV BOUND     c8502   
 BV BOUND     c8503   
 BV BOUND     c8504   
 BV BOUND     c8505   
 BV BOUND     c8506   
 BV BOUND     c8507   
 BV BOUND     c8508   
 BV BOUND     c8509   
 BV BOUND     c8510   
 BV BOUND     c8511   
 BV BOUND     c8512   
 BV BOUND     c8513   
 BV BOUND     c8514   
 BV BOUND     c8515   
 BV BOUND     c8516   
 BV BOUND     c8517   
 BV BOUND     c8518   
 BV BOUND     c8519   
 BV BOUND     c8520   
 BV BOUND     c8521   
 BV BOUND     c8522   
 BV BOUND     c8523   
 BV BOUND     c8524   
 BV BOUND     c8525   
 BV BOUND     c8526   
 BV BOUND     c8527   
 BV BOUND     c8528   
 BV BOUND     c8529   
 BV BOUND     c8530   
 BV BOUND     c8531   
 BV BOUND     c8532   
 BV BOUND     c8533   
 BV BOUND     c8534   
 BV BOUND     c8535   
 BV BOUND     c8536   
 BV BOUND     c8537   
 BV BOUND     c8538   
 BV BOUND     c8539   
 BV BOUND     c8540   
 BV BOUND     c8541   
 BV BOUND     c8542   
 BV BOUND     c8543   
 BV BOUND     c8544   
 BV BOUND     c8545   
 BV BOUND     c8546   
 BV BOUND     c8547   
 BV BOUND     c8548   
 BV BOUND     c8549   
 BV BOUND     c8550   
 BV BOUND     c8551   
 BV BOUND     c8552   
 BV BOUND     c8553   
 BV BOUND     c8554   
 BV BOUND     c8555   
 BV BOUND     c8556   
 BV BOUND     c8557   
 BV BOUND     c8558   
 BV BOUND     c8559   
 BV BOUND     c8560   
 BV BOUND     c8561   
 BV BOUND     c8562   
 BV BOUND     c8563   
 BV BOUND     c8564   
 BV BOUND     c8565   
 BV BOUND     c8566   
 BV BOUND     c8567   
 BV BOUND     c8568   
 BV BOUND     c8569   
 BV BOUND     c8570   
 BV BOUND     c8571   
 BV BOUND     c8572   
 BV BOUND     c8573   
 BV BOUND     c8574   
 BV BOUND     c8575   
 BV BOUND     c8576   
 BV BOUND     c8577   
 BV BOUND     c8578   
 BV BOUND     c8579   
 BV BOUND     c8580   
 BV BOUND     c8581   
 BV BOUND     c8582   
 BV BOUND     c8583   
 BV BOUND     c8584   
 BV BOUND     c8585   
 BV BOUND     c8586   
 BV BOUND     c8587   
 BV BOUND     c8588   
 BV BOUND     c8589   
 BV BOUND     c8590   
 BV BOUND     c8591   
 BV BOUND     c8592   
 BV BOUND     c8593   
 BV BOUND     c8594   
 BV BOUND     c8595   
 BV BOUND     c8596   
 BV BOUND     c8597   
 BV BOUND     c8598   
 BV BOUND     c8599   
 BV BOUND     c8600   
 BV BOUND     c8601   
 BV BOUND     c8602   
 BV BOUND     c8603   
 BV BOUND     c8604   
 BV BOUND     c8605   
 BV BOUND     c8606   
 BV BOUND     c8607   
 BV BOUND     c8608   
 BV BOUND     c8609   
 BV BOUND     c8610   
 BV BOUND     c8611   
 BV BOUND     c8612   
 BV BOUND     c8613   
 BV BOUND     c8614   
 BV BOUND     c8615   
 BV BOUND     c8616   
 BV BOUND     c8617   
 BV BOUND     c8618   
 BV BOUND     c8619   
 BV BOUND     c8620   
 BV BOUND     c8621   
 BV BOUND     c8622   
 BV BOUND     c8623   
 BV BOUND     c8624   
 BV BOUND     c8625   
 BV BOUND     c8626   
 BV BOUND     c8627   
 BV BOUND     c8628   
 BV BOUND     c8629   
 BV BOUND     c8630   
 BV BOUND     c8631   
 BV BOUND     c8632   
 BV BOUND     c8633   
 BV BOUND     c8634   
 BV BOUND     c8635   
 BV BOUND     c8636   
 BV BOUND     c8637   
 BV BOUND     c8638   
 BV BOUND     c8639   
 BV BOUND     c8640   
 BV BOUND     c8641   
 BV BOUND     c8642   
 BV BOUND     c8643   
 BV BOUND     c8644   
 BV BOUND     c8645   
 BV BOUND     c8646   
 BV BOUND     c8647   
 BV BOUND     c8648   
 BV BOUND     c8649   
 BV BOUND     c8650   
 BV BOUND     c8651   
 BV BOUND     c8652   
 BV BOUND     c8653   
 BV BOUND     c8654   
 BV BOUND     c8655   
 BV BOUND     c8656   
 BV BOUND     c8657   
 BV BOUND     c8658   
 BV BOUND     c8659   
 BV BOUND     c8660   
 BV BOUND     c8661   
 BV BOUND     c8662   
 BV BOUND     c8663   
 BV BOUND     c8664   
 BV BOUND     c8665   
 BV BOUND     c8666   
 BV BOUND     c8667   
 BV BOUND     c8668   
 BV BOUND     c8669   
 BV BOUND     c8670   
 BV BOUND     c8671   
 BV BOUND     c8672   
 BV BOUND     c8673   
 BV BOUND     c8674   
 BV BOUND     c8675   
 BV BOUND     c8676   
 BV BOUND     c8677   
 BV BOUND     c8678   
 BV BOUND     c8679   
 BV BOUND     c8680   
 BV BOUND     c8681   
 BV BOUND     c8682   
 BV BOUND     c8683   
 BV BOUND     c8684   
 BV BOUND     c8685   
 BV BOUND     c8686   
 BV BOUND     c8687   
 BV BOUND     c8688   
 BV BOUND     c8689   
 BV BOUND     c8690   
 BV BOUND     c8691   
 BV BOUND     c8692   
 BV BOUND     c8693   
 BV BOUND     c8694   
 BV BOUND     c8695   
 BV BOUND     c8696   
 BV BOUND     c8697   
 BV BOUND     c8698   
 BV BOUND     c8699   
 BV BOUND     c8700   
 BV BOUND     c8701   
 BV BOUND     c8702   
 BV BOUND     c8703   
 BV BOUND     c8704   
 BV BOUND     c8705   
 BV BOUND     c8706   
 BV BOUND     c8707   
 BV BOUND     c8708   
 BV BOUND     c8709   
 BV BOUND     c8710   
 BV BOUND     c8711   
 BV BOUND     c8712   
 BV BOUND     c8713   
 BV BOUND     c8714   
 BV BOUND     c8715   
 BV BOUND     c8716   
 BV BOUND     c8717   
 BV BOUND     c8718   
 BV BOUND     c8719   
 BV BOUND     c8720   
 BV BOUND     c8721   
 BV BOUND     c8722   
 BV BOUND     c8723   
 BV BOUND     c8724   
 BV BOUND     c8725   
 BV BOUND     c8726   
 BV BOUND     c8727   
 BV BOUND     c8728   
 BV BOUND     c8729   
 BV BOUND     c8730   
 BV BOUND     c8731   
 BV BOUND     c8732   
 BV BOUND     c8733   
 BV BOUND     c8734   
 BV BOUND     c8735   
 BV BOUND     c8736   
 BV BOUND     c8737   
 BV BOUND     c8738   
 BV BOUND     c8739   
 BV BOUND     c8740   
 BV BOUND     c8741   
 BV BOUND     c8742   
 BV BOUND     c8743   
 BV BOUND     c8744   
 BV BOUND     c8745   
 BV BOUND     c8746   
 BV BOUND     c8747   
 BV BOUND     c8748   
 BV BOUND     c8749   
 BV BOUND     c8750   
 BV BOUND     c8751   
 BV BOUND     c8752   
 BV BOUND     c8753   
 BV BOUND     c8754   
 BV BOUND     c8755   
 BV BOUND     c8756   
 BV BOUND     c8757   
 BV BOUND     c8758   
 BV BOUND     c8759   
 BV BOUND     c8760   
 BV BOUND     c8761   
 BV BOUND     c8762   
 BV BOUND     c8763   
 BV BOUND     c8764   
 BV BOUND     c8765   
 BV BOUND     c8766   
 BV BOUND     c8767   
 BV BOUND     c8768   
 BV BOUND     c8769   
 BV BOUND     c8770   
 BV BOUND     c8771   
 BV BOUND     c8772   
 BV BOUND     c8773   
 BV BOUND     c8774   
 BV BOUND     c8775   
 BV BOUND     c8776   
 BV BOUND     c8777   
 BV BOUND     c8778   
 BV BOUND     c8779   
 BV BOUND     c8780   
 BV BOUND     c8781   
 BV BOUND     c8782   
 BV BOUND     c8783   
 BV BOUND     c8784   
 BV BOUND     c8785   
 BV BOUND     c8786   
 BV BOUND     c8787   
 BV BOUND     c8788   
 BV BOUND     c8789   
 BV BOUND     c8790   
 BV BOUND     c8791   
 BV BOUND     c8792   
 BV BOUND     c8793   
 BV BOUND     c8794   
 BV BOUND     c8795   
 BV BOUND     c8796   
 BV BOUND     c8797   
 BV BOUND     c8798   
 BV BOUND     c8799   
 BV BOUND     c8800   
 BV BOUND     c8801   
 BV BOUND     c8802   
 BV BOUND     c8803   
 BV BOUND     c8804   
 BV BOUND     c8805   
 BV BOUND     c8806   
 BV BOUND     c8807   
 BV BOUND     c8808   
 BV BOUND     c8809   
 BV BOUND     c8810   
 BV BOUND     c8811   
 BV BOUND     c8812   
 BV BOUND     c8813   
 BV BOUND     c8814   
 BV BOUND     c8815   
 BV BOUND     c8816   
 BV BOUND     c8817   
 BV BOUND     c8818   
 BV BOUND     c8819   
 BV BOUND     c8820   
 BV BOUND     c8821   
 BV BOUND     c8822   
 BV BOUND     c8823   
 BV BOUND     c8824   
 BV BOUND     c8825   
 BV BOUND     c8826   
 BV BOUND     c8827   
 BV BOUND     c8828   
 BV BOUND     c8829   
 BV BOUND     c8830   
 BV BOUND     c8831   
 BV BOUND     c8832   
 BV BOUND     c8833   
 BV BOUND     c8834   
 BV BOUND     c8835   
 BV BOUND     c8836   
 BV BOUND     c8837   
 BV BOUND     c8838   
 BV BOUND     c8839   
 BV BOUND     c8840   
 BV BOUND     c8841   
 BV BOUND     c8842   
 BV BOUND     c8843   
 BV BOUND     c8844   
 BV BOUND     c8845   
 BV BOUND     c8846   
 BV BOUND     c8847   
 BV BOUND     c8848   
 BV BOUND     c8849   
 BV BOUND     c8850   
 BV BOUND     c8851   
 BV BOUND     c8852   
 BV BOUND     c8853   
 BV BOUND     c8854   
 BV BOUND     c8855   
 BV BOUND     c8856   
 BV BOUND     c8857   
 BV BOUND     c8858   
 BV BOUND     c8859   
 BV BOUND     c8860   
 BV BOUND     c8861   
 BV BOUND     c8862   
 BV BOUND     c8863   
 BV BOUND     c8864   
 BV BOUND     c8865   
 BV BOUND     c8866   
 BV BOUND     c8867   
 BV BOUND     c8868   
 BV BOUND     c8869   
 BV BOUND     c8870   
 BV BOUND     c8871   
 BV BOUND     c8872   
 BV BOUND     c8873   
 BV BOUND     c8874   
 BV BOUND     c8875   
 BV BOUND     c8876   
 BV BOUND     c8877   
 BV BOUND     c8878   
 BV BOUND     c8879   
 BV BOUND     c8880   
 BV BOUND     c8881   
 BV BOUND     c8882   
 BV BOUND     c8883   
 BV BOUND     c8884   
 BV BOUND     c8885   
 BV BOUND     c8886   
 BV BOUND     c8887   
 BV BOUND     c8888   
 BV BOUND     c8889   
 BV BOUND     c8890   
 BV BOUND     c8891   
 BV BOUND     c8892   
 BV BOUND     c8893   
 BV BOUND     c8894   
 BV BOUND     c8895   
 BV BOUND     c8896   
 BV BOUND     c8897   
 BV BOUND     c8898   
 BV BOUND     c8899   
 BV BOUND     c8900   
 BV BOUND     c8901   
 BV BOUND     c8902   
 BV BOUND     c8903   
 BV BOUND     c8904   
 BV BOUND     c8905   
 BV BOUND     c8906   
 BV BOUND     c8907   
 BV BOUND     c8908   
 BV BOUND     c8909   
 BV BOUND     c8910   
 BV BOUND     c8911   
 BV BOUND     c8912   
 BV BOUND     c8913   
 BV BOUND     c8914   
 BV BOUND     c8915   
 BV BOUND     c8916   
 BV BOUND     c8917   
 BV BOUND     c8918   
 BV BOUND     c8919   
 BV BOUND     c8920   
 BV BOUND     c8921   
 BV BOUND     c8922   
 BV BOUND     c8923   
 BV BOUND     c8924   
 BV BOUND     c8925   
 BV BOUND     c8926   
 BV BOUND     c8927   
 BV BOUND     c8928   
 BV BOUND     c8929   
 BV BOUND     c8930   
 BV BOUND     c8931   
 BV BOUND     c8932   
 BV BOUND     c8933   
 BV BOUND     c8934   
 BV BOUND     c8935   
 BV BOUND     c8936   
 BV BOUND     c8937   
 BV BOUND     c8938   
 BV BOUND     c8939   
 BV BOUND     c8940   
 BV BOUND     c8941   
 BV BOUND     c8942   
 BV BOUND     c8943   
 BV BOUND     c8944   
 BV BOUND     c8945   
 BV BOUND     c8946   
 BV BOUND     c8947   
 BV BOUND     c8948   
 BV BOUND     c8949   
 BV BOUND     c8950   
 BV BOUND     c8951   
 BV BOUND     c8952   
 BV BOUND     c8953   
 BV BOUND     c8954   
 BV BOUND     c8955   
 BV BOUND     c8956   
 BV BOUND     c8957   
 BV BOUND     c8958   
 BV BOUND     c8959   
 BV BOUND     c8960   
 BV BOUND     c8961   
 BV BOUND     c8962   
ENDATA
